 N Si 
 1.0000000000000000
    24.0000000000000000    0.0000000000000000    0.0000000000000000
     0.0000000000000000   20.0000000000000000    0.0000000000000000
     0.0000000000000000    0.0000000000000000   16.0000000000000000
 N   Si 
   1   3
Cartesian
  1.3500000000000001  0.7794228634059948  0.0000000000000000
  2.7000000000000002  0.0000000000000000  0.0000000000000000
  1.3500000000000001  2.3382685902179845  0.0000000000000000
  0.0000000000000000  0.0000000000000000  0.0000000000000000
