 N Si 
 1.0000000000000000
    24.0000000000000000    0.0000000000000000    0.0000000000000000
     0.0000000000000000   20.0000000000000000    0.0000000000000000
     0.0000000000000000    0.0000000000000000   16.0000000000000000
 N   Si 
   1   3
Cartesian
  2.2999999999999998  1.3279056191361391  0.0000000000000000
  4.5999999999999996  0.0000000000000000  0.0000000000000000
  2.2999999999999998  3.9837168574084174  0.0000000000000000
  0.0000000000000000  0.0000000000000000  0.0000000000000000
