 N Si 
 1.0000000000000000
    24.0000000000000000    0.0000000000000000    0.0000000000000000
     0.0000000000000000   20.0000000000000000    0.0000000000000000
     0.0000000000000000    0.0000000000000000   16.0000000000000000
 N   Si 
   1   3
Cartesian
  1.6499999999999999  0.9526279441628824  0.0000000000000000
  3.2999999999999998  0.0000000000000000  0.0000000000000000
  1.6499999999999999  2.8578838324886471  0.0000000000000000
  0.0000000000000000  0.0000000000000000  0.0000000000000000
