 N Si 
 1.0000000000000000
    24.0000000000000000    0.0000000000000000    0.0000000000000000
     0.0000000000000000   20.0000000000000000    0.0000000000000000
     0.0000000000000000    0.0000000000000000   16.0000000000000000
 N   Si 
   1   3
Cartesian
  2.8999999999999999  1.6743157806499145  0.0000000000000000
  5.7999999999999998  0.0000000000000000  0.0000000000000000
  2.8999999999999999  5.0229473419497435  0.0000000000000000
  0.0000000000000000  0.0000000000000000  0.0000000000000000
