 N Si 
 1.0000000000000000
    24.0000000000000000    0.0000000000000000    0.0000000000000000
     0.0000000000000000   20.0000000000000000    0.0000000000000000
     0.0000000000000000    0.0000000000000000   16.0000000000000000
 N   Si 
   1   3
Cartesian
  1.0500000000000000  0.6062177826491071  0.0000000000000000
  2.1000000000000001  0.0000000000000000  0.0000000000000000
  1.0500000000000000  1.8186533479473210  0.0000000000000000
  0.0000000000000000  0.0000000000000000  0.0000000000000000
