 N Si 
 1.0000000000000000
    24.0000000000000000    0.0000000000000000    0.0000000000000000
     0.0000000000000000   20.0000000000000000    0.0000000000000000
     0.0000000000000000    0.0000000000000000   16.0000000000000000
 N   Si 
   1   3
Cartesian
  2.9500000000000002  1.7031832941093961  0.0000000000000000
  5.9000000000000004  0.0000000000000000  0.0000000000000000
  2.9500000000000002  5.1095498823281877  0.0000000000000000
  0.0000000000000000  0.0000000000000000  0.0000000000000000
