 N Si 
 1.0000000000000000
    24.0000000000000000    0.0000000000000000    0.0000000000000000
     0.0000000000000000   20.0000000000000000    0.0000000000000000
     0.0000000000000000    0.0000000000000000   16.0000000000000000
 N   Si 
   1   3
Cartesian
  2.7999999999999998  1.6165807537309520  0.0000000000000000
  5.5999999999999996  0.0000000000000000  0.0000000000000000
  2.7999999999999998  4.8497422611928558  0.0000000000000000
  0.0000000000000000  0.0000000000000000  0.0000000000000000
