 N Si 
 1.0000000000000000
    24.0000000000000000    0.0000000000000000    0.0000000000000000
     0.0000000000000000   20.0000000000000000    0.0000000000000000
     0.0000000000000000    0.0000000000000000   16.0000000000000000
 N   Si 
   1   3
Cartesian
  1.0000000000000000  0.5773502691896257  0.0000000000000000
  2.0000000000000000  0.0000000000000000  0.0000000000000000
  1.0000000000000000  1.7320508075688772  0.0000000000000000
  0.0000000000000000  0.0000000000000000  0.0000000000000000
