 N Si 
 1.0000000000000000
    24.0000000000000000    0.0000000000000000    0.0000000000000000
     0.0000000000000000   20.0000000000000000    0.0000000000000000
     0.0000000000000000    0.0000000000000000   16.0000000000000000
 N   Si 
   1   3
Cartesian
  2.5499999999999998  1.4722431864335455  0.0000000000000000
  5.0999999999999996  0.0000000000000000  0.0000000000000000
  2.5499999999999998  4.4167295593006362  0.0000000000000000
  0.0000000000000000  0.0000000000000000  0.0000000000000000
