 N Si 
 1.0000000000000000
    24.0000000000000000    0.0000000000000000    0.0000000000000000
     0.0000000000000000   20.0000000000000000    0.0000000000000000
     0.0000000000000000    0.0000000000000000   16.0000000000000000
 N   Si 
   1   3
Cartesian
  2.4500000000000002  1.4145081595145832  0.0000000000000000
  4.9000000000000004  0.0000000000000000  0.0000000000000000
  2.4500000000000002  4.2435244785437494  0.0000000000000000
  0.0000000000000000  0.0000000000000000  0.0000000000000000
