 N Si 
 1.0000000000000000
    24.0000000000000000    0.0000000000000000    0.0000000000000000
     0.0000000000000000   20.0000000000000000    0.0000000000000000
     0.0000000000000000    0.0000000000000000   16.0000000000000000
 N   Si 
   1   3
Cartesian
  1.8999999999999999  1.0969655114602888  0.0000000000000000
  3.7999999999999998  0.0000000000000000  0.0000000000000000
  1.8999999999999999  3.2908965343808667  0.0000000000000000
  0.0000000000000000  0.0000000000000000  0.0000000000000000
