 N Si 
 1.0000000000000000
    24.0000000000000000    0.0000000000000000    0.0000000000000000
     0.0000000000000000   20.0000000000000000    0.0000000000000000
     0.0000000000000000    0.0000000000000000   16.0000000000000000
 N   Si 
   1   3
Cartesian
  1.3999999999999999  0.8082903768654760  0.0000000000000000
  2.7999999999999998  0.0000000000000000  0.0000000000000000
  1.3999999999999999  2.4248711305964279  0.0000000000000000
  0.0000000000000000  0.0000000000000000  0.0000000000000000
