 N Si 
 1.0000000000000000
    24.0000000000000000    0.0000000000000000    0.0000000000000000
     0.0000000000000000   20.0000000000000000    0.0000000000000000
     0.0000000000000000    0.0000000000000000   16.0000000000000000
 N   Si 
   1   3
Cartesian
  2.6499999999999999  1.5299782133525082  0.0000000000000000
  5.2999999999999998  0.0000000000000000  0.0000000000000000
  2.6499999999999999  4.5899346400575247  0.0000000000000000
  0.0000000000000000  0.0000000000000000  0.0000000000000000
