 N Si 
 1.0000000000000000
    24.0000000000000000    0.0000000000000000    0.0000000000000000
     0.0000000000000000   20.0000000000000000    0.0000000000000000
     0.0000000000000000    0.0000000000000000   16.0000000000000000
 N   Si 
   1   3
Cartesian
  2.5000000000000000  1.4433756729740643  0.0000000000000000
  5.0000000000000000  0.0000000000000000  0.0000000000000000
  2.5000000000000000  4.3301270189221928  0.0000000000000000
  0.0000000000000000  0.0000000000000000  0.0000000000000000
