 N Si 
 1.0000000000000000
    24.0000000000000000    0.0000000000000000    0.0000000000000000
     0.0000000000000000   20.0000000000000000    0.0000000000000000
     0.0000000000000000    0.0000000000000000   16.0000000000000000
 N   Si 
   1   3
Cartesian
  1.1499999999999999  0.6639528095680696  0.0000000000000000
  2.2999999999999998  0.0000000000000000  0.0000000000000000
  1.1499999999999999  1.9918584287042087  0.0000000000000000
  0.0000000000000000  0.0000000000000000  0.0000000000000000
