 N Si 
 1.0000000000000000
    24.0000000000000000    0.0000000000000000    0.0000000000000000
     0.0000000000000000   20.0000000000000000    0.0000000000000000
     0.0000000000000000    0.0000000000000000   16.0000000000000000
 N   Si 
   1   3
Cartesian
  2.0000000000000000  1.1547005383792515  0.0000000000000000
  4.0000000000000000  0.0000000000000000  0.0000000000000000
  2.0000000000000000  3.4641016151377544  0.0000000000000000
  0.0000000000000000  0.0000000000000000  0.0000000000000000
