 N Si 
 1.0000000000000000
    24.0000000000000000    0.0000000000000000    0.0000000000000000
     0.0000000000000000   20.0000000000000000    0.0000000000000000
     0.0000000000000000    0.0000000000000000   16.0000000000000000
 N   Si 
   1   3
Cartesian
  2.2000000000000002  1.2701705922171767  0.0000000000000000
  4.4000000000000004  0.0000000000000000  0.0000000000000000
  2.2000000000000002  3.8105117766515302  0.0000000000000000
  0.0000000000000000  0.0000000000000000  0.0000000000000000
