 N Si 
 1.0000000000000000
    24.0000000000000000    0.0000000000000000    0.0000000000000000
     0.0000000000000000   20.0000000000000000    0.0000000000000000
     0.0000000000000000    0.0000000000000000   16.0000000000000000
 N   Si 
   1   3
Cartesian
  2.0499999999999998  1.1835680518387326  0.0000000000000000
  4.0999999999999996  0.0000000000000000  0.0000000000000000
  2.0499999999999998  3.5507041555161978  0.0000000000000000
  0.0000000000000000  0.0000000000000000  0.0000000000000000
