 N Si 
 1.0000000000000000
    24.0000000000000000    0.0000000000000000    0.0000000000000000
     0.0000000000000000   20.0000000000000000    0.0000000000000000
     0.0000000000000000    0.0000000000000000   16.0000000000000000
 N   Si 
   1   3
Cartesian
  2.3999999999999999  1.3856406460551016  0.0000000000000000
  4.7999999999999998  0.0000000000000000  0.0000000000000000
  2.3999999999999999  4.1569219381653051  0.0000000000000000
  0.0000000000000000  0.0000000000000000  0.0000000000000000
