 N Si 
 1.0000000000000000
    24.0000000000000000    0.0000000000000000    0.0000000000000000
     0.0000000000000000   20.0000000000000000    0.0000000000000000
     0.0000000000000000    0.0000000000000000   16.0000000000000000
 N   Si 
   1   3
Cartesian
  2.7000000000000002  1.5588457268119895  0.0000000000000000
  5.4000000000000004  0.0000000000000000  0.0000000000000000
  2.7000000000000002  4.6765371804359690  0.0000000000000000
  0.0000000000000000  0.0000000000000000  0.0000000000000000
