 N Si 
 1.0000000000000000
    24.0000000000000000    0.0000000000000000    0.0000000000000000
     0.0000000000000000   20.0000000000000000    0.0000000000000000
     0.0000000000000000    0.0000000000000000   16.0000000000000000
 N   Si 
   1   3
Cartesian
  1.7000000000000000  0.9814954576223637  0.0000000000000000
  3.3999999999999999  0.0000000000000000  0.0000000000000000
  1.7000000000000000  2.9444863728670914  0.0000000000000000
  0.0000000000000000  0.0000000000000000  0.0000000000000000
