 N Si 
 1.0000000000000000
    24.0000000000000000    0.0000000000000000    0.0000000000000000
     0.0000000000000000   20.0000000000000000    0.0000000000000000
     0.0000000000000000    0.0000000000000000   16.0000000000000000
 N   Si 
   1   3
Cartesian
  1.2500000000000000  0.7216878364870322  0.0000000000000000
  2.5000000000000000  0.0000000000000000  0.0000000000000000
  1.2500000000000000  2.1650635094610964  0.0000000000000000
  0.0000000000000000  0.0000000000000000  0.0000000000000000
