 N Si 
 1.0000000000000000
    24.0000000000000000    0.0000000000000000    0.0000000000000000
     0.0000000000000000   20.0000000000000000    0.0000000000000000
     0.0000000000000000    0.0000000000000000   16.0000000000000000
 N   Si 
   1   3
Cartesian
  1.8000000000000000  1.0392304845413263  0.0000000000000000
  3.6000000000000001  0.0000000000000000  0.0000000000000000
  1.8000000000000000  3.1176914536239790  0.0000000000000000
  0.0000000000000000  0.0000000000000000  0.0000000000000000
