Si24 N32
1.0
7.787436 0.000000 0.000000
0.000000 7.787436 0.000000
0.000000 0.000000 7.787436
Si N
24 32
direct
0.875000 0.875000 0.125000 Si
0.375000 0.125000 0.375000 Si
0.625000 0.875000 0.375000 Si
0.125000 0.125000 0.125000 Si
0.250000 0.750000 0.250000 Si
0.000000 0.000000 0.500000 Si
0.875000 0.375000 0.625000 Si
0.375000 0.625000 0.875000 Si
0.625000 0.375000 0.875000 Si
0.125000 0.625000 0.625000 Si
0.250000 0.250000 0.750000 Si
0.000000 0.500000 0.000000 Si
0.375000 0.875000 0.625000 Si
0.875000 0.125000 0.875000 Si
0.125000 0.875000 0.875000 Si
0.625000 0.125000 0.625000 Si
0.750000 0.750000 0.750000 Si
0.500000 0.000000 0.000000 Si
0.375000 0.375000 0.125000 Si
0.875000 0.625000 0.375000 Si
0.125000 0.375000 0.375000 Si
0.625000 0.625000 0.125000 Si
0.750000 0.250000 0.250000 Si
0.500000 0.500000 0.500000 Si
0.367563 0.367563 0.367563 N
0.882437 0.117563 0.117563 N
0.617563 0.117563 0.382437 N
0.117563 0.882437 0.117563 N
0.132437 0.132437 0.367563 N
0.132437 0.367563 0.132437 N
0.382437 0.882437 0.382437 N
0.367563 0.132437 0.132437 N
0.367563 0.867563 0.867563 N
0.882437 0.617563 0.617563 N
0.617563 0.617563 0.882437 N
0.117563 0.382437 0.617563 N
0.132437 0.632437 0.867563 N
0.132437 0.867563 0.632437 N
0.382437 0.382437 0.882437 N
0.367563 0.632437 0.632437 N
0.867563 0.367563 0.867563 N
0.382437 0.117563 0.617563 N
0.117563 0.117563 0.882437 N
0.617563 0.882437 0.617563 N
0.632437 0.132437 0.867563 N
0.632437 0.367563 0.632437 N
0.882437 0.882437 0.882437 N
0.867563 0.132437 0.632437 N
0.867563 0.867563 0.367563 N
0.382437 0.617563 0.117563 N
0.117563 0.617563 0.382437 N
0.617563 0.382437 0.117563 N
0.632437 0.632437 0.367563 N
0.632437 0.867563 0.132437 N
0.882437 0.382437 0.382437 N
0.867563 0.632437 0.132437 N
