Hf32 O64 mp-550893
1.0
       10.0643186569         0.0000000000         0.0000000000
        0.0000000000        10.0643186569         0.0000000000
        0.0000000000         0.0000000000        10.0643186569
   Hf    O
   32   64
Direct
     0.000000000         0.000000000         0.000000000
     0.000000000         0.250000000         0.250000000
     0.250000000         0.000000000         0.250000000
     0.250000000         0.250000000         0.000000000
     0.000000000         0.000000000         0.500000000
     0.500000000         0.000000000         0.000000000
     0.000000000         0.500000000         0.000000000
     0.000000000         0.250000000         0.750000000
     0.500000000         0.250000000         0.250000000
     0.000000000         0.750000000         0.250000000
     0.250000000         0.000000000         0.750000000
     0.750000000         0.000000000         0.250000000
     0.250000000         0.500000000         0.250000000
     0.250000000         0.250000000         0.500000000
     0.750000000         0.250000000         0.000000000
     0.250000000         0.750000000         0.000000000
     0.000000000         0.500000000         0.500000000
     0.500000000         0.000000000         0.500000000
     0.500000000         0.500000000         0.000000000
     0.000000000         0.750000000         0.750000000
     0.500000000         0.250000000         0.750000000
     0.500000000         0.750000000         0.250000000
     0.250000000         0.500000000         0.750000000
     0.750000000         0.000000000         0.750000000
     0.750000000         0.500000000         0.250000000
     0.250000000         0.750000000         0.500000000
     0.750000000         0.250000000         0.500000000
     0.750000000         0.750000000         0.000000000
     0.500000000         0.500000000         0.500000000
     0.500000000         0.750000000         0.750000000
     0.750000000         0.500000000         0.750000000
     0.750000000         0.750000000         0.500000000
     0.125000000         0.125000000         0.125000000
     0.875000000         0.875000000         0.875000000
     0.875000000         0.875000000         0.125000000
     0.125000000         0.125000000         0.875000000
     0.875000000         0.125000000         0.875000000
     0.125000000         0.875000000         0.125000000
     0.125000000         0.875000000         0.875000000
     0.875000000         0.125000000         0.125000000
     0.125000000         0.375000000         0.375000000
     0.875000000         0.125000000         0.375000000
     0.125000000         0.375000000         0.125000000
     0.875000000         0.375000000         0.125000000
     0.125000000         0.125000000         0.375000000
     0.875000000         0.375000000         0.375000000
     0.375000000         0.125000000         0.375000000
     0.125000000         0.875000000         0.375000000
     0.375000000         0.125000000         0.125000000
     0.375000000         0.875000000         0.375000000
     0.375000000         0.875000000         0.125000000
     0.375000000         0.375000000         0.125000000
     0.375000000         0.375000000         0.875000000
     0.125000000         0.375000000         0.875000000
     0.375000000         0.125000000         0.875000000
     0.125000000         0.125000000         0.625000000
     0.875000000         0.875000000         0.375000000
     0.875000000         0.875000000         0.625000000
     0.125000000         0.875000000         0.625000000
     0.875000000         0.125000000         0.625000000
     0.625000000         0.125000000         0.125000000
     0.375000000         0.875000000         0.875000000
     0.625000000         0.875000000         0.875000000
     0.625000000         0.125000000         0.875000000
     0.625000000         0.875000000         0.125000000
     0.125000000         0.625000000         0.125000000
     0.875000000         0.375000000         0.875000000
     0.875000000         0.625000000         0.875000000
     0.875000000         0.625000000         0.125000000
     0.125000000         0.625000000         0.875000000
     0.125000000         0.375000000         0.625000000
     0.875000000         0.375000000         0.625000000
     0.625000000         0.375000000         0.375000000
     0.375000000         0.375000000         0.375000000
     0.625000000         0.375000000         0.125000000
     0.625000000         0.125000000         0.375000000
     0.125000000         0.625000000         0.375000000
     0.875000000         0.625000000         0.375000000
     0.375000000         0.125000000         0.625000000
     0.375000000         0.875000000         0.625000000
     0.625000000         0.875000000         0.375000000
     0.375000000         0.625000000         0.375000000
     0.375000000         0.625000000         0.125000000
     0.375000000         0.375000000         0.625000000
     0.625000000         0.375000000         0.875000000
     0.375000000         0.625000000         0.875000000
     0.125000000         0.625000000         0.625000000
     0.875000000         0.625000000         0.625000000
     0.625000000         0.125000000         0.625000000
     0.625000000         0.875000000         0.625000000
     0.625000000         0.625000000         0.125000000
     0.625000000         0.625000000         0.875000000
     0.625000000         0.375000000         0.625000000
     0.625000000         0.625000000         0.375000000
     0.375000000         0.625000000         0.625000000
     0.625000000         0.625000000         0.625000000