Si24N24-d2.71-start                     
   1.00000000000000     
     8.5223883141011392    0.0000000000000000    0.0000000000000000
     0.0000000000000000    8.5223883141011392    0.0000000000000000
     0.0000000000000000    0.0000000000000000    8.5223883141011392
   N    Si
    24    24
Selective dynamics
Direct
  0.3003605566588015  0.4401642554508655  0.5092468115412004   T   T   T
  0.0622599979788936  0.6308478557674122  0.6269274751529771   T   T   T
  0.0676420211209336  0.1700041391997731  0.4975234484868070   T   T   T
  0.5559077381012040  0.8446148752763786  0.5708053938314573   T   T   T
  0.5543226276651133  0.9866950638184793  0.8743477717837000   T   T   T
  0.2611179710443273  0.8636485369172475  0.0349041461406593   T   T   T
  0.7994722014484921  0.6218168787011535  0.4254826650615355   T   T   T
  0.4118303270370475  0.1700659461672523  0.6333705163077303   T   T   T
  0.1804672745790951  0.3595704484805755  0.8121068217292886   T   T   T
  0.1041751349739192  0.1884596580492510  0.1060632106756961   T   T   T
  0.9509995768160726  0.4880716063876916  0.0252722693744069   T   T   T
  0.7071964877361565  0.1650453562952491  0.6443112923411379   T   T   T
  0.0359855197879874  0.8569063401456442  0.2606976566620531   T   T   T
  0.6456939823848911  0.5170414492268652  0.1952008790739813   T   T   T
  0.0147663351771922  0.4466940481879254  0.3245648997618996   T   T   T
  0.6749151145415326  0.9060112382408334  0.2896699885436873   T   T   T
  0.5713473719275004  0.2125678183158436  0.0880679419513177   T   T   T
  0.5782939692057796  0.4700307433282166  0.6621810486380402   T   T   T
  0.1501521538115547  0.0372345153163742  0.7867565269775613   T   T   T
  0.8539763500166081  0.1504802613175665  0.3211333890227980   T   T   T
  0.7882017036650635  0.7400300022749091  0.0756472352231299   T   T   T
  0.2993516715759173  0.4412754271902769  0.1584298575966191   T   T   T
  0.8766899782795260  0.9131830822731783  0.5208778387515062   T   T   T
  0.5442033622397339  0.2710599225266849  0.3693548580596925   T   T   T
  0.6012928923307030  0.7229254427073691  0.1543313073166862   T   T   T
  0.1041082904971112  0.3596027258582736  0.9993192192286098   T   T   T
  0.6795357882078379  0.1290249308494010  0.9484173866443276   T   T   T
  0.4547755958100227  0.6681034081827774  0.7014359632039702   T   T   T
  0.9051064956828611  0.5134082040303438  0.5450539119760810   T   T   T
  0.8729241068729942  0.6531414012911850  0.9005749473843407   T   T   T
  0.7230752746687732  0.8108856335771009  0.4574108991026215   T   T   T
  0.2268487630597821  0.5220235649672665  0.6793918912525755   T   T   T
  0.4984758857977615  0.3712060760426883  0.1959180729060416   T   T   T
  0.8621389959895897  0.9323933677497430  0.1131530579505256   T   T   T
  0.2672768505290531  0.8105882104123079  0.2383635453910211   T   T   T
  0.8452838312436373  0.5306642635252398  0.2224856009207267   T   T   T
  0.2045915589320164  0.1974931521084073  0.6776637339040624   T   T   T
  0.2173492285220649  0.8825193868768095  0.6653666382053177   T   T   T
  0.1137758276492406  0.9905859152334257  0.9884049304446275   T   T   T
  0.0580108511468992  0.8876956586346995  0.4477892114877437   T   T   T
  0.4401973939498683  0.8149266008726263  0.9313298060888624   T   T   T
  0.8611682057267384  0.1066181612400684  0.5279241261746778   T   T   T
  0.0314536630890816  0.2399995486992991  0.3006497673147706   T   T   T
  0.5581657728206841  0.0264041627099107  0.6674655558708261   T   T   T
  0.2269977296558621  0.5190153865881412  0.3331009471997693   T   T   T
  0.6452313314827917  0.1236870267820730  0.2613109910741552   T   T   T
  0.4849369181896254  0.3462684111250405  0.5437162497484149   T   T   T
  0.7268429198107578  0.3595341078117387  0.7612283778571625   T   T   T
 
 -0.64857946E-02  0.35045863E-02 -0.18659443E-03
  0.47120474E-02  0.95364026E-03  0.66162612E-02
 -0.43300620E-03 -0.12345097E-01 -0.13718674E-01
 -0.17167484E-01  0.53537731E-02  0.24135079E-01
 -0.79817288E-04 -0.88396021E-02  0.11999993E-01
  0.19165726E-01 -0.33513750E-02  0.43134856E-03
  0.36868792E-02 -0.38925667E-02 -0.39868457E-02
  0.11627798E-02 -0.73876597E-02  0.68056191E-03
 -0.13744378E-01  0.14572281E-02 -0.10407332E-01
 -0.60973701E-02 -0.22212285E-03 -0.30465957E-02
  0.22865307E-01  0.10373381E-01  0.45294383E-03
 -0.34499092E-02 -0.44460671E-02  0.49866570E-02
 -0.36843730E-02  0.87916501E-02  0.55528366E-02
 -0.12650961E-01 -0.41553311E-02  0.57929189E-02
  0.66537990E-03  0.37522014E-02 -0.30204834E-02
  0.31805330E-02  0.81147667E-02 -0.93170275E-02
  0.43784629E-02 -0.29674992E-02  0.75213922E-02
  0.20660044E-04  0.79172785E-05 -0.29863610E-02
 -0.60727968E-02 -0.57443420E-02  0.33911885E-02
  0.40963880E-02 -0.47445540E-02  0.18321674E-02
  0.41883978E-02 -0.40356522E-02 -0.76417816E-03
 -0.24788936E-02 -0.91390372E-02 -0.66906741E-03
 -0.54867486E-02  0.56269111E-02  0.26035970E-02
  0.18077626E-02 -0.10877006E-03 -0.17776807E-02
  0.55345711E-02  0.54211604E-02 -0.61448096E-03
  0.13530367E-01  0.42835463E-02  0.52086958E-02
 -0.21237483E-02  0.69683141E-03  0.36341776E-02
  0.62063546E-02  0.32247318E-02  0.12044578E-01
  0.48741181E-02  0.47907118E-02 -0.92803351E-02
 -0.74904767E-03 -0.12815489E-01 -0.13635789E-03
 -0.26240088E-02 -0.44285741E-02  0.61860137E-02
 -0.62101213E-03  0.11169264E-01  0.54331253E-02
  0.21143345E-02  0.24663195E-02  0.92754005E-03
  0.47137445E-02 -0.23834462E-02  0.70919913E-02
 -0.10381934E-01 -0.13890939E-02 -0.12834820E-02
 -0.11019066E-01 -0.27644189E-03 -0.20632121E-02
 -0.59960624E-02 -0.67872570E-02  0.63181567E-02
  0.25135323E-02 -0.28056862E-02  0.68013526E-02
  0.75150777E-02  0.41542246E-03  0.11328073E-01
  0.59692670E-04 -0.17174318E-02  0.49697061E-02
 -0.21498791E-02  0.83486082E-02 -0.13780985E-01
  0.22112021E-02 -0.68787600E-02 -0.12012120E-02
 -0.29300436E-02  0.79573562E-02  0.16687634E-02
  0.11128526E-02 -0.65961544E-02  0.93946888E-02
  0.18171870E-03 -0.88191714E-02  0.45337146E-02
 -0.60629405E-02  0.17721213E-02  0.16585321E-01
 -0.83862820E-02 -0.16632778E-01 -0.26595517E-02
 -0.95995848E-02 -0.64077284E-02  0.70905494E-02
 
           1
   3.00000000000000     
  0.10000000E+01  0.00000000E+00  0.00000000E+00  0.00000000E+00
  0.29807747E+00  0.44139792E+00  0.50918113E+00
  0.63918705E-01  0.63118355E+00  0.62925649E+00
  0.67489597E-01  0.16565849E+00  0.49269428E+00
  0.54986454E+00  0.84649948E+00  0.57930128E+00
  0.55429453E+00  0.98358340E+00  0.87857194E+00
  0.26786458E+00  0.86246881E+00  0.35055987E-01
  0.80077003E+00  0.62044664E+00  0.42407924E+00
  0.41223964E+00  0.16746539E+00  0.63361008E+00
  0.17562906E+00  0.36008341E+00  0.80844330E+00
  0.10202878E+00  0.18838147E+00  0.10499077E+00
  0.95904849E+00  0.49172318E+00  0.25431712E-01
  0.70598207E+00  0.16348028E+00  0.64606667E+00
  0.34688569E-01  0.86000112E+00  0.26265233E+00
  0.64124067E+00  0.51557871E+00  0.19724007E+00
  0.15000558E-01  0.44801488E+00  0.32350165E+00
  0.67603471E+00  0.90886775E+00  0.28639026E+00
  0.57288865E+00  0.21152322E+00  0.90715577E-01
  0.57830124E+00  0.47003353E+00  0.66112981E+00
  0.14801444E+00  0.35212426E-01  0.78795027E+00
  0.85541834E+00  0.14881011E+00  0.32177834E+00
  0.78967608E+00  0.73860940E+00  0.75378234E-01
  0.29847907E+00  0.43805836E+00  0.15819434E+00
  0.87475857E+00  0.91516383E+00  0.52179434E+00
  0.54483972E+00  0.27102163E+00  0.36872909E+00
  0.60324114E+00  0.72483377E+00  0.15411500E+00
  0.10887117E+00  0.36111059E+00  0.11527531E-02
  0.67878820E+00  0.12927023E+00  0.94969667E+00
  0.45696032E+00  0.66923856E+00  0.70567582E+00
  0.90682225E+00  0.51509460E+00  0.54178710E+00
  0.87266043E+00  0.64863017E+00  0.90052695E+00
  0.72215159E+00  0.80932671E+00  0.45958846E+00
  0.22663016E+00  0.52595530E+00  0.68130443E+00
  0.49922016E+00  0.37207426E+00  0.19624458E+00
  0.86379830E+00  0.93155436E+00  0.11564954E+00
  0.26362226E+00  0.81009923E+00  0.23791174E+00
  0.84140497E+00  0.53056695E+00  0.22175932E+00
  0.20248086E+00  0.19510394E+00  0.67988781E+00
  0.21823403E+00  0.88153175E+00  0.66776081E+00
  0.11642124E+00  0.99073215E+00  0.99239257E+00
  0.58031864E-01  0.88709110E+00  0.44953862E+00
  0.43944061E+00  0.81786543E+00  0.92647871E+00
  0.86194658E+00  0.10419674E+00  0.52750128E+00
  0.30422247E-01  0.24280065E+00  0.30123720E+00
  0.55855751E+00  0.24082224E-01  0.67077262E+00
  0.22706170E+00  0.51591091E+00  0.33469688E+00
  0.64309709E+00  0.12431084E+00  0.26714926E+00
  0.48198483E+00  0.34041344E+00  0.54278005E+00
  0.72346373E+00  0.35727850E+00  0.76372435E+00
 -0.24134773E-02  0.15588651E-02  0.36211109E-03
  0.15511180E-02  0.52873688E-03  0.23549213E-02
 -0.56196012E-03 -0.42673146E-02 -0.55990047E-02
 -0.60978288E-02  0.25353374E-02  0.80718162E-02
  0.47274734E-04 -0.27877611E-02  0.47837118E-02
  0.61187007E-02 -0.81331347E-03  0.22411285E-03
  0.17984086E-02 -0.20847285E-02 -0.69761423E-03
  0.11328500E-02 -0.26846102E-02  0.12726801E-03
 -0.49435971E-02  0.48486136E-03 -0.29786511E-02
 -0.20606370E-02  0.13949684E-03 -0.10713014E-02
  0.82748632E-02  0.32216234E-02 -0.16685286E-04
 -0.18601685E-02 -0.14878014E-02  0.20917589E-02
 -0.17723377E-02  0.31275693E-02  0.27434409E-02
 -0.33770933E-02 -0.16347817E-02  0.25156669E-02
  0.26563345E-03  0.14682692E-02 -0.15556261E-02
  0.16266736E-02  0.25174129E-02 -0.20347588E-02
  0.17084513E-02 -0.10206554E-02  0.17186964E-02
  0.63809382E-04 -0.62860236E-03 -0.15714234E-02
 -0.18486373E-02 -0.17822894E-02  0.10390298E-02
  0.27354536E-02 -0.18929313E-02  0.93460190E-03
  0.93249023E-03 -0.13831205E-02 -0.13261996E-03
 -0.14774954E-02 -0.29387724E-02 -0.35756495E-03
 -0.19931555E-02  0.20576748E-02 -0.73969377E-04
  0.63722408E-03  0.11193780E-03 -0.24660105E-03
  0.21029225E-02  0.18878573E-02 -0.13403134E-03
  0.44449809E-02  0.13334134E-02  0.16671375E-02
 -0.87548700E-03  0.33969693E-03  0.12673014E-02
  0.19906150E-02  0.10263619E-02  0.42590301E-02
  0.12615171E-02  0.17599458E-02 -0.35883008E-02
 -0.28186386E-03 -0.42292375E-02 -0.16457103E-03
 -0.82601052E-03 -0.12121529E-02  0.19772008E-02
  0.25013606E-05  0.37183914E-02  0.17954658E-02
  0.86313632E-03  0.76555854E-03  0.51310434E-03
  0.13299013E-02 -0.74647019E-03  0.23936702E-02
 -0.34012777E-02 -0.39016858E-03 -0.44814630E-03
 -0.41607981E-02 -0.42172495E-03 -0.63747149E-03
 -0.22735060E-02 -0.23962927E-02  0.23384963E-02
  0.79910797E-03 -0.69915634E-03  0.22941477E-02
  0.29271776E-02 -0.84204087E-04  0.39642211E-02
 -0.91842601E-04 -0.60628227E-03  0.14848575E-02
 -0.83877789E-03  0.26475714E-02 -0.50245036E-02
  0.56750458E-03 -0.28117194E-02 -0.19421896E-03
 -0.96417359E-03  0.29431835E-02  0.65845391E-03
  0.74846991E-03 -0.23237473E-02  0.29943539E-02
  0.25882659E-03 -0.32901709E-02  0.18060998E-02
 -0.24087650E-02  0.55178758E-03  0.56309952E-02
 -0.25745145E-02 -0.53674507E-02 -0.79879120E-03
 -0.34846755E-02 -0.23375654E-02  0.27559739E-02
  0.00000000E+00  0.00000000E+00  0.00000000E+00
  0.00000000E+00  0.00000000E+00  0.00000000E+00
  0.00000000E+00  0.00000000E+00  0.00000000E+00
  0.00000000E+00  0.00000000E+00  0.00000000E+00
  0.00000000E+00  0.00000000E+00  0.00000000E+00
  0.00000000E+00  0.00000000E+00  0.00000000E+00
  0.00000000E+00  0.00000000E+00  0.00000000E+00
  0.00000000E+00  0.00000000E+00  0.00000000E+00
  0.00000000E+00  0.00000000E+00  0.00000000E+00
  0.00000000E+00  0.00000000E+00  0.00000000E+00
  0.00000000E+00  0.00000000E+00  0.00000000E+00
  0.00000000E+00  0.00000000E+00  0.00000000E+00
  0.00000000E+00  0.00000000E+00  0.00000000E+00
  0.00000000E+00  0.00000000E+00  0.00000000E+00
  0.00000000E+00  0.00000000E+00  0.00000000E+00
  0.00000000E+00  0.00000000E+00  0.00000000E+00
  0.00000000E+00  0.00000000E+00  0.00000000E+00
  0.00000000E+00  0.00000000E+00  0.00000000E+00
  0.00000000E+00  0.00000000E+00  0.00000000E+00
  0.00000000E+00  0.00000000E+00  0.00000000E+00
  0.00000000E+00  0.00000000E+00  0.00000000E+00
  0.00000000E+00  0.00000000E+00  0.00000000E+00
  0.00000000E+00  0.00000000E+00  0.00000000E+00
  0.00000000E+00  0.00000000E+00  0.00000000E+00
  0.00000000E+00  0.00000000E+00  0.00000000E+00
  0.00000000E+00  0.00000000E+00  0.00000000E+00
  0.00000000E+00  0.00000000E+00  0.00000000E+00
  0.00000000E+00  0.00000000E+00  0.00000000E+00
  0.00000000E+00  0.00000000E+00  0.00000000E+00
  0.00000000E+00  0.00000000E+00  0.00000000E+00
  0.00000000E+00  0.00000000E+00  0.00000000E+00
  0.00000000E+00  0.00000000E+00  0.00000000E+00
  0.00000000E+00  0.00000000E+00  0.00000000E+00
  0.00000000E+00  0.00000000E+00  0.00000000E+00
  0.00000000E+00  0.00000000E+00  0.00000000E+00
  0.00000000E+00  0.00000000E+00  0.00000000E+00
  0.00000000E+00  0.00000000E+00  0.00000000E+00
  0.00000000E+00  0.00000000E+00  0.00000000E+00
  0.00000000E+00  0.00000000E+00  0.00000000E+00
  0.00000000E+00  0.00000000E+00  0.00000000E+00
  0.00000000E+00  0.00000000E+00  0.00000000E+00
  0.00000000E+00  0.00000000E+00  0.00000000E+00
  0.00000000E+00  0.00000000E+00  0.00000000E+00
  0.00000000E+00  0.00000000E+00  0.00000000E+00
  0.00000000E+00  0.00000000E+00  0.00000000E+00
  0.00000000E+00  0.00000000E+00  0.00000000E+00
  0.00000000E+00  0.00000000E+00  0.00000000E+00
  0.00000000E+00  0.00000000E+00  0.00000000E+00
