Hf32 O64 mp-1858
1.0
       10.0755052567         0.0000000000         0.0000000000
        0.0000000000         9.9721698761         0.0000000000
        0.0000000000         0.0000000000        10.4047555923
   Hf    O
   32   64
Direct
     0.122793078         0.115423232         0.267547935
     0.877206922         0.884576797         0.732452035
     0.127206922         0.884576797         0.517547965
     0.372793078         0.115423232         0.982452035
     0.877206922         0.615423203         0.982452035
     0.122793078         0.384576768         0.517547965
     0.372793078         0.384576768         0.732452035
     0.127206922         0.615423203         0.267547935
     0.122793078         0.115423232         0.767547965
     0.877206922         0.884576797         0.232452065
     0.127206922         0.884576797         0.017547935
     0.372793078         0.115423232         0.482452065
     0.877206922         0.615423203         0.482452065
     0.122793078         0.384576768         0.017547935
     0.372793078         0.384576768         0.232452065
     0.127206922         0.615423203         0.767547965
     0.622793078         0.115423232         0.267547935
     0.377206922         0.884576797         0.732452035
     0.627206922         0.884576797         0.517547965
     0.872793078         0.115423232         0.982452035
     0.377206922         0.615423203         0.982452035
     0.622793078         0.384576768         0.517547965
     0.872793078         0.384576768         0.732452035
     0.627206922         0.615423203         0.267547935
     0.622793078         0.115423232         0.767547965
     0.377206922         0.884576797         0.232452065
     0.627206922         0.884576797         0.017547935
     0.872793078         0.115423232         0.482452065
     0.377206922         0.615423203         0.482452065
     0.622793078         0.384576768         0.017547935
     0.872793078         0.384576768         0.232452065
     0.627206922         0.615423203         0.767547965
     0.001222050         0.022855431         0.119334094
     0.998777926         0.977144599         0.880665898
     0.248777956         0.977144599         0.369334102
     0.251222044         0.022855431         0.130665898
     0.998777926         0.522855401         0.130665898
     0.001222050         0.477144569         0.369334102
     0.251222044         0.477144569         0.880665898
     0.248777956         0.522855401         0.119334094
     0.001222050         0.022855431         0.619334102
     0.998777926         0.977144599         0.380665898
     0.248777956         0.977144599         0.869334102
     0.251222044         0.022855431         0.630665898
     0.998777926         0.522855401         0.630665898
     0.001222050         0.477144569         0.869334102
     0.251222044         0.477144569         0.380665898
     0.248777956         0.522855401         0.619334102
     0.501222074         0.022855431         0.119334094
     0.498777956         0.977144599         0.880665898
     0.748777926         0.977144599         0.369334102
     0.751222074         0.022855431         0.130665898
     0.498777956         0.522855401         0.130665898
     0.501222074         0.477144569         0.369334102
     0.751222074         0.477144569         0.880665898
     0.748777926         0.522855401         0.119334094
     0.501222074         0.022855431         0.619334102
     0.498777956         0.977144599         0.380665898
     0.748777926         0.977144599         0.869334102
     0.751222074         0.022855431         0.630665898
     0.498777956         0.522855401         0.630665898
     0.501222074         0.477144569         0.869334102
     0.751222074         0.477144569         0.380665898
     0.748777926         0.522855401         0.619334102
     0.062899701         0.710538507         0.436754882
     0.937100291         0.289461493         0.563245118
     0.187100291         0.289461493         0.686754882
     0.312899709         0.710538507         0.813245118
     0.937100291         0.210538507         0.813245118
     0.062899701         0.789461493         0.686754882
     0.312899709         0.789461493         0.563245118
     0.187100291         0.210538507         0.436754882
     0.062899701         0.710538507         0.936754882
     0.937100291         0.289461493         0.063245118
     0.187100291         0.289461493         0.186754882
     0.312899709         0.710538507         0.313245118
     0.937100291         0.210538507         0.313245118
     0.062899701         0.789461493         0.186754882
     0.312899709         0.789461493         0.063245118
     0.187100291         0.210538507         0.936754882
     0.562899709         0.710538507         0.436754882
     0.437100291         0.289461493         0.563245118
     0.687100291         0.289461493         0.686754882
     0.812899709         0.710538507         0.813245118
     0.437100291         0.210538507         0.813245118
     0.562899709         0.789461493         0.686754882
     0.812899709         0.789461493         0.563245118
     0.687100291         0.210538507         0.436754882
     0.562899709         0.710538507         0.936754882
     0.437100291         0.289461493         0.063245118
     0.687100291         0.289461493         0.186754882
     0.812899709         0.710538507         0.313245118
     0.437100291         0.210538507         0.313245118
     0.562899709         0.789461493         0.186754882
     0.812899709         0.789461493         0.063245118
     0.687100291         0.210538507         0.936754882
