Hf Hf
1.0
24 0 0 
0 16 0
0 0 16
Hf
2 
Cartesian
0.00 0.00 0.00 Hf
8.00 0.00 0.00 Hf
