Hf  O 
 1.0000000000000000
    15.0000000000000000    0.0000000000000000    0.0000000000000000
     0.0000000000000000   15.0000000000000000    0.0000000000000000
     0.0000000000000000    0.0000000000000000   15.0000000000000000
 Hf  O  
   1   4
Cartesian
 10.0000134525509310  9.7943011462304597  9.9999361500866613
 10.0000012305811481  9.6651302632545004 12.1368758404538468
 10.0000007565928328 10.9745068283191181 11.7860910267756491
 11.5828151131535506  8.8408909637290733 10.0000202738028676
  8.4171694471213598  8.8408642204939270 10.0000213430362095
