Hf  O 
 1.0000000000000000
    15.0000000000000000    0.0000000000000000    0.0000000000000000
     0.0000000000000000   15.0000000000000000    0.0000000000000000
     0.0000000000000000    0.0000000000000000   15.0000000000000000
 Hf  O  
   1   4
Cartesian
 10.0000134525509310  9.7943011462304597  9.9999361500866613
 10.0000012305811481  7.7636077946695181  9.3220859681131074
 10.0000007565928328  7.7635483134216443 10.6776363991593470
 11.5828151131535506  8.8408909637290733 10.0000202738028676
  8.4171694471213598  8.8408642204939270 10.0000213430362095
