Hf O
1.0
       12.5927019119         0.0000000000         0.0000000000
       -6.2963509560        10.9055997580         0.0000000000
        0.0000000000         0.0000000000        13.2683620453
   Hf    O
   64   64
Direct
     0.083333336         0.166666672         0.018321026
     0.083333336         0.166666672         0.518321037
     0.083333336         0.416666687         0.018321026
     0.083333336         0.416666687         0.518321037
     0.083333336         0.666666687         0.018321026
     0.083333336         0.666666687         0.518321037
     0.083333336         0.916666687         0.018321026
     0.083333336         0.916666687         0.518321037
     0.333333343         0.166666672         0.018321026
     0.333333343         0.166666672         0.518321037
     0.333333343         0.416666687         0.018321026
     0.333333343         0.416666687         0.518321037
     0.333333343         0.666666687         0.018321026
     0.333333343         0.666666687         0.518321037
     0.333333343         0.916666687         0.018321026
     0.333333343         0.916666687         0.518321037
     0.583333313         0.166666672         0.018321026
     0.583333313         0.166666672         0.518321037
     0.583333313         0.416666687         0.018321026
     0.583333313         0.416666687         0.518321037
     0.583333313         0.666666687         0.018321026
     0.583333313         0.666666687         0.518321037
     0.583333313         0.916666687         0.018321026
     0.583333313         0.916666687         0.518321037
     0.833333313         0.166666672         0.018321026
     0.833333313         0.166666672         0.518321037
     0.833333313         0.416666687         0.018321026
     0.833333313         0.416666687         0.518321037
     0.833333313         0.666666687         0.018321026
     0.833333313         0.666666687         0.518321037
     0.833333313         0.916666687         0.018321026
     0.833333313         0.916666687         0.518321037
     0.166666672         0.083333336         0.268321037
     0.166666672         0.083333336         0.768321037
     0.166666672         0.333333343         0.268321037
     0.166666672         0.333333343         0.768321037
     0.166666672         0.583333313         0.268321037
     0.166666672         0.583333313         0.768321037
     0.166666672         0.833333313         0.268321037
     0.166666672         0.833333313         0.768321037
     0.416666687         0.083333336         0.268321037
     0.416666687         0.083333336         0.768321037
     0.416666687         0.333333343         0.268321037
     0.416666687         0.333333343         0.768321037
     0.416666687         0.583333313         0.268321037
     0.416666687         0.583333313         0.768321037
     0.416666687         0.833333313         0.268321037
     0.416666687         0.833333313         0.768321037
     0.666666687         0.083333336         0.268321037
     0.666666687         0.083333336         0.768321037
     0.666666687         0.333333343         0.268321037
     0.666666687         0.333333343         0.768321037
     0.666666687         0.583333313         0.268321037
     0.666666687         0.583333313         0.768321037
     0.666666687         0.833333313         0.268321037
     0.666666687         0.833333313         0.768321037
     0.916666687         0.083333336         0.268321037
     0.916666687         0.083333336         0.768321037
     0.916666687         0.333333343         0.268321037
     0.916666687         0.333333343         0.768321037
     0.916666687         0.583333313         0.268321037
     0.916666687         0.583333313         0.768321037
     0.916666687         0.833333313         0.268321037
     0.916666687         0.833333313         0.768321037
     0.083333336         0.166666672         0.169178382
     0.083333336         0.166666672         0.669178367
     0.083333336         0.416666687         0.169178382
     0.083333336         0.416666687         0.669178367
     0.083333336         0.666666687         0.169178382
     0.083333336         0.666666687         0.669178367
     0.083333336         0.916666687         0.169178382
     0.083333336         0.916666687         0.669178367
     0.333333343         0.166666672         0.169178382
     0.333333343         0.166666672         0.669178367
     0.333333343         0.416666687         0.169178382
     0.333333343         0.416666687         0.669178367
     0.333333343         0.666666687         0.169178382
     0.333333343         0.666666687         0.669178367
     0.333333343         0.916666687         0.169178382
     0.333333343         0.916666687         0.669178367
     0.583333313         0.166666672         0.169178382
     0.583333313         0.166666672         0.669178367
     0.583333313         0.416666687         0.169178382
     0.583333313         0.416666687         0.669178367
     0.583333313         0.666666687         0.169178382
     0.583333313         0.666666687         0.669178367
     0.583333313         0.916666687         0.169178382
     0.583333313         0.916666687         0.669178367
     0.833333313         0.166666672         0.169178382
     0.833333313         0.166666672         0.669178367
     0.833333313         0.416666687         0.169178382
     0.833333313         0.416666687         0.669178367
     0.833333313         0.666666687         0.169178382
     0.833333313         0.666666687         0.669178367
     0.833333313         0.916666687         0.169178382
     0.833333313         0.916666687         0.669178367
     0.166666672         0.083333336         0.419178367
     0.166666672         0.083333336         0.919178367
     0.166666672         0.333333343         0.419178367
     0.166666672         0.333333343         0.919178367
     0.166666672         0.583333313         0.419178367
     0.166666672         0.583333313         0.919178367
     0.166666672         0.833333313         0.419178367
     0.166666672         0.833333313         0.919178367
     0.416666687         0.083333336         0.419178367
     0.416666687         0.083333336         0.919178367
     0.416666687         0.333333343         0.419178367
     0.416666687         0.333333343         0.919178367
     0.416666687         0.583333313         0.419178367
     0.416666687         0.583333313         0.919178367
     0.416666687         0.833333313         0.419178367
     0.416666687         0.833333313         0.919178367
     0.666666687         0.083333336         0.419178367
     0.666666687         0.083333336         0.919178367
     0.666666687         0.333333343         0.419178367
     0.666666687         0.333333343         0.919178367
     0.666666687         0.583333313         0.419178367
     0.666666687         0.583333313         0.919178367
     0.666666687         0.833333313         0.419178367
     0.666666687         0.833333313         0.919178367
     0.916666687         0.083333336         0.419178367
     0.916666687         0.083333336         0.919178367
     0.916666687         0.333333343         0.419178367
     0.916666687         0.333333343         0.919178367
     0.916666687         0.583333313         0.419178367
     0.916666687         0.583333313         0.919178367
     0.916666687         0.833333313         0.419178367
     0.916666687         0.833333313         0.919178367

