Hf  O 
 1.0000000000000000
    15.0000000000000000    0.0000000000000000    0.0000000000000000
     0.0000000000000000   15.0000000000000000    0.0000000000000000
     0.0000000000000000    0.0000000000000000   15.0000000000000000
 Hf  O  
   1   3
Cartesian
  9.9999999515929261 10.0115796065300344 10.1116176974532124
 10.0000000426605595 11.8113955796193792 10.2522489827422802
 10.7691734277863915  8.1760161496861272  9.9680666516977823
  9.2308265779600873  8.1760160992133279  9.9680666681067365
