Hf O
1.0
24 0 0 
0 16 0
0 0 16
Hf O
1 1  
Cartesian
0.00 0.00 0.00 Hf
8.00 0.00 0.00 O
