Hf32 O64 mp-741
1.0
       11.1127901077         0.0000000000         0.0000000000
        0.0000000000         6.6671938896         0.0000000000
        0.0000000000         0.0000000000        13.0099897385
   Hf    O
   32   64
Direct
     0.124341004         0.375000000         0.053935502
     0.875658989         0.625000000         0.946064472
     0.125658989         0.625000000         0.303935498
     0.374341011         0.375000000         0.196064502
     0.124341004         0.875000000         0.053935502
     0.374341011         0.875000000         0.196064502
     0.124341004         0.375000000         0.553935528
     0.875658989         0.625000000         0.446064502
     0.125658989         0.625000000         0.803935528
     0.374341011         0.375000000         0.696064472
     0.124341004         0.875000000         0.553935528
     0.374341011         0.875000000         0.696064472
     0.875658989         0.125000000         0.946064472
     0.125658989         0.125000000         0.303935498
     0.875658989         0.125000000         0.446064502
     0.125658989         0.125000000         0.803935528
     0.624341011         0.375000000         0.053935502
     0.375658989         0.625000000         0.946064472
     0.625658989         0.625000000         0.303935498
     0.874341011         0.375000000         0.196064502
     0.624341011         0.875000000         0.053935502
     0.874341011         0.875000000         0.196064502
     0.624341011         0.375000000         0.553935528
     0.375658989         0.625000000         0.446064502
     0.625658989         0.625000000         0.803935528
     0.874341011         0.375000000         0.696064472
     0.624341011         0.875000000         0.553935528
     0.874341011         0.875000000         0.696064472
     0.375658989         0.125000000         0.946064472
     0.625658989         0.125000000         0.303935498
     0.375658989         0.125000000         0.446064502
     0.625658989         0.125000000         0.803935528
     0.010397000         0.125000000         0.170726493
     0.989602983         0.875000000         0.829273522
     0.239602998         0.875000000         0.420726478
     0.260396987         0.125000000         0.079273507
     0.989602983         0.375000000         0.829273522
     0.239602998         0.375000000         0.420726478
     0.010397000         0.125000000         0.670726478
     0.989602983         0.875000000         0.329273522
     0.239602998         0.875000000         0.920726478
     0.260396987         0.125000000         0.579273522
     0.989602983         0.375000000         0.329273522
     0.239602998         0.375000000         0.920726478
     0.010397000         0.625000000         0.170726493
     0.260396987         0.625000000         0.079273507
     0.010397000         0.625000000         0.670726478
     0.260396987         0.625000000         0.579273522
     0.510397017         0.125000000         0.170726493
     0.489603013         0.875000000         0.829273522
     0.739602983         0.875000000         0.420726478
     0.760397017         0.125000000         0.079273507
     0.489603013         0.375000000         0.829273522
     0.739602983         0.375000000         0.420726478
     0.510397017         0.125000000         0.670726478
     0.489603013         0.875000000         0.329273522
     0.739602983         0.875000000         0.920726478
     0.760397017         0.125000000         0.579273522
     0.489603013         0.375000000         0.329273522
     0.739602983         0.375000000         0.920726478
     0.510397017         0.625000000         0.170726493
     0.760397017         0.625000000         0.079273507
     0.510397017         0.625000000         0.670726478
     0.760397017         0.625000000         0.579273522
     0.069749497         0.125000000         0.461699992
     0.930250525         0.875000000         0.538300037
     0.180250496         0.875000000         0.711699963
     0.319749504         0.125000000         0.788300037
     0.930250525         0.375000000         0.538300037
     0.180250496         0.375000000         0.711699963
     0.069749497         0.125000000         0.961699963
     0.930250525         0.875000000         0.038300008
     0.180250496         0.875000000         0.211699992
     0.319749504         0.125000000         0.288300008
     0.930250525         0.375000000         0.038300008
     0.180250496         0.375000000         0.211699992
     0.069749497         0.625000000         0.461699992
     0.319749504         0.625000000         0.788300037
     0.069749497         0.625000000         0.961699963
     0.319749504         0.625000000         0.288300008
     0.569749475         0.125000000         0.461699992
     0.430250496         0.875000000         0.538300037
     0.680250525         0.875000000         0.711699963
     0.819749475         0.125000000         0.788300037
     0.430250496         0.375000000         0.538300037
     0.680250525         0.375000000         0.711699963
     0.569749475         0.125000000         0.961699963
     0.430250496         0.875000000         0.038300008
     0.680250525         0.875000000         0.211699992
     0.819749475         0.125000000         0.288300008
     0.430250496         0.375000000         0.038300008
     0.680250525         0.375000000         0.211699992
     0.569749475         0.625000000         0.461699992
     0.819749475         0.625000000         0.788300037
     0.569749475         0.625000000         0.961699963
     0.819749475         0.625000000         0.288300008
