Si6 N8
1.0
7.660308 0.000000 0.000000
-3.830154 6.634021 0.000000
0.000000 0.000000 2.925085
Si N
6 8
direct
0.825137 0.593893 0.250000 Si
0.231244 0.825137 0.750000 Si
0.593893 0.768756 0.750000 Si
0.406107 0.231244 0.250000 Si
0.768756 0.174863 0.250000 Si
0.174863 0.406107 0.750000 Si
0.666667 0.333333 0.250000 N
0.333333 0.666667 0.750000 N
0.670057 0.700736 0.250000 N
0.969321 0.670057 0.750000 N
0.700736 0.030679 0.750000 N
0.299264 0.969321 0.250000 N
0.329943 0.299264 0.750000 N
0.030679 0.329943 0.250000 N
