Hf32 O64 mp-352
1.0
       10.1883497238         0.0000000000         0.0000000000
        0.0000000000        10.3012895584         0.0000000000
       -1.7523386614         0.0000000000        10.4059064995
   Hf    O
   32   64
Direct
     0.138067886         0.020967660         0.103953667
     0.861932099         0.979032338         0.896046340
     0.861932099         0.270967662         0.146046340
     0.138067886         0.229032338         0.353953660
     0.138067886         0.020967660         0.603953660
     0.861932099         0.979032338         0.396046340
     0.861932099         0.270967662         0.646046340
     0.138067886         0.229032338         0.853953660
     0.138067886         0.520967662         0.103953667
     0.861932099         0.479032338         0.896046340
     0.861932099         0.770967662         0.146046340
     0.138067886         0.729032338         0.353953660
     0.138067886         0.520967662         0.603953660
     0.861932099         0.479032338         0.396046340
     0.861932099         0.770967662         0.646046340
     0.138067886         0.729032338         0.853953660
     0.638067901         0.020967660         0.103953667
     0.361932099         0.979032338         0.896046340
     0.361932099         0.270967662         0.146046340
     0.638067901         0.229032338         0.353953660
     0.638067901         0.020967660         0.603953660
     0.361932099         0.979032338         0.396046340
     0.361932099         0.270967662         0.646046340
     0.638067901         0.229032338         0.853953660
     0.638067901         0.520967662         0.103953667
     0.361932099         0.479032338         0.896046340
     0.361932099         0.770967662         0.146046340
     0.638067901         0.729032338         0.353953660
     0.638067901         0.520967662         0.603953660
     0.361932099         0.479032338         0.396046340
     0.361932099         0.770967662         0.646046340
     0.638067901         0.729032338         0.853953660
     0.034180392         0.084620558         0.423126400
     0.965819597         0.915379465         0.576873600
     0.965819597         0.334620565         0.826873600
     0.034180392         0.165379435         0.673126400
     0.034180392         0.084620558         0.923126400
     0.965819597         0.915379465         0.076873600
     0.965819597         0.334620565         0.326873600
     0.034180392         0.165379435         0.173126400
     0.034180392         0.584620535         0.423126400
     0.965819597         0.415379435         0.576873600
     0.965819597         0.834620535         0.826873600
     0.034180392         0.665379465         0.673126400
     0.034180392         0.584620535         0.923126400
     0.965819597         0.415379435         0.076873600
     0.965819597         0.834620535         0.326873600
     0.034180392         0.665379465         0.173126400
     0.534180403         0.084620558         0.423126400
     0.465819597         0.915379465         0.576873600
     0.465819597         0.334620565         0.826873600
     0.534180403         0.165379435         0.673126400
     0.534180403         0.084620558         0.923126400
     0.465819597         0.915379465         0.076873600
     0.465819597         0.334620565         0.326873600
     0.534180403         0.165379435         0.173126400
     0.534180403         0.584620535         0.423126400
     0.465819597         0.415379435         0.576873600
     0.465819597         0.834620535         0.826873600
     0.534180403         0.665379465         0.673126400
     0.534180403         0.584620535         0.923126400
     0.465819597         0.415379435         0.076873600
     0.465819597         0.834620535         0.326873600
     0.534180403         0.665379465         0.173126400
     0.223998904         0.371262968         0.489288986
     0.776001096         0.628737032         0.510711014
     0.776001096         0.621262968         0.760711014
     0.223998904         0.878737032         0.739288986
     0.223998904         0.371262968         0.989288986
     0.776001096         0.628737032         0.010711014
     0.776001096         0.621262968         0.260711014
     0.223998904         0.878737032         0.239288986
     0.223998904         0.871262968         0.489288986
     0.776001096         0.128737032         0.510711014
     0.776001096         0.121262968         0.760711014
     0.223998904         0.378737032         0.739288986
     0.223998904         0.871262968         0.989288986
     0.776001096         0.128737032         0.010711014
     0.776001096         0.121262968         0.260711014
     0.223998904         0.378737032         0.239288986
     0.723998904         0.371262968         0.489288986
     0.276001096         0.628737032         0.510711014
     0.276001096         0.621262968         0.760711014
     0.723998904         0.878737032         0.739288986
     0.723998904         0.371262968         0.989288986
     0.276001096         0.628737032         0.010711014
     0.276001096         0.621262968         0.260711014
     0.723998904         0.878737032         0.239288986
     0.723998904         0.871262968         0.489288986
     0.276001096         0.128737032         0.510711014
     0.276001096         0.121262968         0.760711014
     0.723998904         0.378737032         0.739288986
     0.723998904         0.871262968         0.989288986
     0.276001096         0.128737032         0.010711014
     0.276001096         0.121262968         0.260711014
     0.723998904         0.378737032         0.239288986
