 N Si 
 1.0000000000000000
    24.0000000000000000    0.0000000000000000    0.0000000000000000
     0.0000000000000000   20.0000000000000000    0.0000000000000000
     0.0000000000000000    0.0000000000000000   16.0000000000000000
 N   Si 
   4   1
Cartesian
  0.0000000000000000  0.0000000000000000  0.0000000000000000
  4.5000000000000000  0.0000000000000000  0.0000000000000000
  2.2500000000000000  3.8971143170299736  0.0000000000000000
  2.2500000000000000  1.2990381056766580  3.6742346141747668
  2.2500000000000000  1.2990381056766580  0.9185586535436917
