 N Si 
 1.0000000000000000
    24.0000000000000000    0.0000000000000000    0.0000000000000000
     0.0000000000000000   20.0000000000000000    0.0000000000000000
     0.0000000000000000    0.0000000000000000   16.0000000000000000
 N   Si 
   4   1
Cartesian
  0.0000000000000000  0.0000000000000000  0.0000000000000000
  4.7000000000000002  0.0000000000000000  0.0000000000000000
  2.3500000000000001  4.0703193977868617  0.0000000000000000
  2.3500000000000001  1.3567731325956205  3.8375339303603120
  2.3500000000000001  1.3567731325956205  0.9593834825900780
