 N Si 
 1.0000000000000000
    24.0000000000000000    0.0000000000000000    0.0000000000000000
     0.0000000000000000   20.0000000000000000    0.0000000000000000
     0.0000000000000000    0.0000000000000000   16.0000000000000000
 N   Si 
   4   1
Cartesian
  0.0000000000000000  0.0000000000000000  0.0000000000000000
  2.3999999999999999  0.0000000000000000  0.0000000000000000
  1.2000000000000000  2.0784609690826525  0.0000000000000000
  1.2000000000000000  0.6928203230275508  1.9595917942265422
  1.2000000000000000  0.6928203230275508  0.4898979485566355
