 N Si 
 1.0000000000000000
    24.0000000000000000    0.0000000000000000    0.0000000000000000
     0.0000000000000000   20.0000000000000000    0.0000000000000000
     0.0000000000000000    0.0000000000000000   16.0000000000000000
 N   Si 
   4   1
Cartesian
  0.0000000000000000  0.0000000000000000  0.0000000000000000
  5.5000000000000000  0.0000000000000000  0.0000000000000000
  2.7500000000000000  4.7631397208144124  0.0000000000000000
  2.7500000000000000  1.5877132402714706  4.4907311951024926
  2.7500000000000000  1.5877132402714706  1.1226827987756232
