 N Si 
 1.0000000000000000
    24.0000000000000000    0.0000000000000000    0.0000000000000000
     0.0000000000000000   20.0000000000000000    0.0000000000000000
     0.0000000000000000    0.0000000000000000   16.0000000000000000
 N   Si 
   4   1
Cartesian
  0.0000000000000000  0.0000000000000000  0.0000000000000000
  3.2000000000000002  0.0000000000000000  0.0000000000000000
  1.6000000000000001  2.7712812921102037  0.0000000000000000
  1.6000000000000001  0.9237604307034012  2.6127890589687230
  1.6000000000000001  0.9237604307034012  0.6531972647421808
