 N Si 
 1.0000000000000000
    24.0000000000000000    0.0000000000000000    0.0000000000000000
     0.0000000000000000   20.0000000000000000    0.0000000000000000
     0.0000000000000000    0.0000000000000000   16.0000000000000000
 N   Si 
   4   1
Cartesian
  0.0000000000000000  0.0000000000000000  0.0000000000000000
  2.8999999999999999  0.0000000000000000  0.0000000000000000
  1.4500000000000000  2.5114736709748717  0.0000000000000000
  1.4500000000000000  0.8371578903249572  2.3678400846904051
  1.4500000000000000  0.8371578903249572  0.5919600211726013
