 N Si 
 1.0000000000000000
    24.0000000000000000    0.0000000000000000    0.0000000000000000
     0.0000000000000000   20.0000000000000000    0.0000000000000000
     0.0000000000000000    0.0000000000000000   16.0000000000000000
 N   Si 
   4   1
Cartesian
  0.0000000000000000  0.0000000000000000  0.0000000000000000
  2.2000000000000002  0.0000000000000000  0.0000000000000000
  1.1000000000000001  1.9052558883257651  0.0000000000000000
  1.1000000000000001  0.6350852961085883  1.7962924780409972
  1.1000000000000001  0.6350852961085883  0.4490731195102493
