 N Si 
 1.0000000000000000
    24.0000000000000000    0.0000000000000000    0.0000000000000000
     0.0000000000000000   20.0000000000000000    0.0000000000000000
     0.0000000000000000    0.0000000000000000   16.0000000000000000
 N   Si 
   4   1
Cartesian
  0.0000000000000000  0.0000000000000000  0.0000000000000000
  4.2000000000000002  0.0000000000000000  0.0000000000000000
  2.1000000000000001  3.6373066958946421  0.0000000000000000
  2.1000000000000001  1.2124355652982142  3.4292856398964489
  2.1000000000000001  1.2124355652982142  0.8573214099741122
