 N Si 
 1.0000000000000000
    24.0000000000000000    0.0000000000000000    0.0000000000000000
     0.0000000000000000   20.0000000000000000    0.0000000000000000
     0.0000000000000000    0.0000000000000000   16.0000000000000000
 N   Si 
   4   1
Cartesian
  0.0000000000000000  0.0000000000000000  0.0000000000000000
  3.0000000000000000  0.0000000000000000  0.0000000000000000
  1.5000000000000000  2.5980762113533160  0.0000000000000000
  1.5000000000000000  0.8660254037844386  2.4494897427831779
  1.5000000000000000  0.8660254037844386  0.6123724356957945
