 N Si 
 1.0000000000000000
    24.0000000000000000    0.0000000000000000    0.0000000000000000
     0.0000000000000000   20.0000000000000000    0.0000000000000000
     0.0000000000000000    0.0000000000000000   16.0000000000000000
 N   Si 
   4   1
Cartesian
  0.0000000000000000  0.0000000000000000  0.0000000000000000
  5.4000000000000004  0.0000000000000000  0.0000000000000000
  2.7000000000000002  4.6765371804359690  0.0000000000000000
  2.7000000000000002  1.5588457268119895  4.4090815370097207
  2.7000000000000002  1.5588457268119895  1.1022703842524302
