 N Si 
 1.0000000000000000
    24.0000000000000000    0.0000000000000000    0.0000000000000000
     0.0000000000000000   20.0000000000000000    0.0000000000000000
     0.0000000000000000    0.0000000000000000   16.0000000000000000
 N   Si 
   4   1
Cartesian
  0.0000000000000000  0.0000000000000000  0.0000000000000000
  3.8999999999999999  0.0000000000000000  0.0000000000000000
  1.9500000000000000  3.3774990747593105  0.0000000000000000
  1.9500000000000000  1.1258330249197701  3.1843366656181309
  1.9500000000000000  1.1258330249197701  0.7960841664045327
