 N Si 
 1.0000000000000000
    24.0000000000000000    0.0000000000000000    0.0000000000000000
     0.0000000000000000   20.0000000000000000    0.0000000000000000
     0.0000000000000000    0.0000000000000000   16.0000000000000000
 N   Si 
   4   1
Cartesian
  0.0000000000000000  0.0000000000000000  0.0000000000000000
  5.7999999999999998  0.0000000000000000  0.0000000000000000
  2.8999999999999999  5.0229473419497435  0.0000000000000000
  2.8999999999999999  1.6743157806499145  4.7356801693808102
  2.8999999999999999  1.6743157806499145  1.1839200423452025
