 N Si 
 1.0000000000000000
    24.0000000000000000    0.0000000000000000    0.0000000000000000
     0.0000000000000000   20.0000000000000000    0.0000000000000000
     0.0000000000000000    0.0000000000000000   16.0000000000000000
 N   Si 
   4   1
Cartesian
  0.0000000000000000  0.0000000000000000  0.0000000000000000
  3.5000000000000000  0.0000000000000000  0.0000000000000000
  1.7500000000000000  3.0310889132455352  0.0000000000000000
  1.7500000000000000  1.0103629710818449  2.8577380332470406
  1.7500000000000000  1.0103629710818449  0.7144345083117601
