 N Si 
 1.0000000000000000
    24.0000000000000000    0.0000000000000000    0.0000000000000000
     0.0000000000000000   20.0000000000000000    0.0000000000000000
     0.0000000000000000    0.0000000000000000   16.0000000000000000
 N   Si 
   4   1
Cartesian
  0.0000000000000000  0.0000000000000000  0.0000000000000000
  5.2000000000000002  0.0000000000000000  0.0000000000000000
  2.6000000000000001  4.5033320996790804  0.0000000000000000
  2.6000000000000001  1.5011106998930270  4.2457822208241751
  2.6000000000000001  1.5011106998930270  1.0614455552060438
