 N Si 
 1.0000000000000000
    24.0000000000000000    0.0000000000000000    0.0000000000000000
     0.0000000000000000   20.0000000000000000    0.0000000000000000
     0.0000000000000000    0.0000000000000000   16.0000000000000000
 N   Si 
   4   1
Cartesian
  0.0000000000000000  0.0000000000000000  0.0000000000000000
  3.7000000000000002  0.0000000000000000  0.0000000000000000
  1.8500000000000001  3.2042939940024229  0.0000000000000000
  1.8500000000000001  1.0680979980008076  3.0210373494325862
  1.8500000000000001  1.0680979980008076  0.7552593373581465
