 N Si 
 1.0000000000000000
    24.0000000000000000    0.0000000000000000    0.0000000000000000
     0.0000000000000000   20.0000000000000000    0.0000000000000000
     0.0000000000000000    0.0000000000000000   16.0000000000000000
 N   Si 
   4   1
Cartesian
  0.0000000000000000  0.0000000000000000  0.0000000000000000
  3.1000000000000001  0.0000000000000000  0.0000000000000000
  1.5500000000000000  2.6846787517317598  0.0000000000000000
  1.5500000000000000  0.8948929172439199  2.5311394008759502
  1.5500000000000000  0.8948929172439199  0.6327848502189876
