 N Si 
 1.0000000000000000
    24.0000000000000000    0.0000000000000000    0.0000000000000000
     0.0000000000000000   20.0000000000000000    0.0000000000000000
     0.0000000000000000    0.0000000000000000   16.0000000000000000
 N   Si 
   4   1
Cartesian
  0.0000000000000000  0.0000000000000000  0.0000000000000000
  4.2999999999999998  0.0000000000000000  0.0000000000000000
  2.1499999999999999  3.7239092362730859  0.0000000000000000
  2.1499999999999999  1.2413030787576953  3.5109352979892212
  2.1499999999999999  1.2413030787576953  0.8777338244973053
