 N Si 
 1.0000000000000000
    24.0000000000000000    0.0000000000000000    0.0000000000000000
     0.0000000000000000   20.0000000000000000    0.0000000000000000
     0.0000000000000000    0.0000000000000000   16.0000000000000000
 N   Si 
   4   1
Cartesian
  0.0000000000000000  0.0000000000000000  0.0000000000000000
  5.7000000000000002  0.0000000000000000  0.0000000000000000
  2.8500000000000001  4.9363448015713001  0.0000000000000000
  2.8500000000000001  1.6454482671904334  4.6540305112880382
  2.8500000000000001  1.6454482671904334  1.1635076278220096
