 N Si 
 1.0000000000000000
    24.0000000000000000    0.0000000000000000    0.0000000000000000
     0.0000000000000000   20.0000000000000000    0.0000000000000000
     0.0000000000000000    0.0000000000000000   16.0000000000000000
 N   Si 
   4   1
Cartesian
  0.0000000000000000  0.0000000000000000  0.0000000000000000
  2.6000000000000001  0.0000000000000000  0.0000000000000000
  1.3000000000000000  2.2516660498395402  0.0000000000000000
  1.3000000000000000  0.7505553499465135  2.1228911104120876
  1.3000000000000000  0.7505553499465135  0.5307227776030219
