Si Si
1.0
24 0 0 
0 16 0
0 0 16
Si
2 
Cartesian
0.00 0.00 0.00 Si
8.00 0.00 0.00 Si
