Si96N64
   1.00000000000000     
    13.4006881714000006    0.0000000000000000    0.0000000000000000
     0.0000000000000000   13.4006881714000006    0.0000000000000000
     0.0000000000000000    0.0000000000000000   13.4006881714000006
   Si   N 
    96    64
Direct
  0.1646352063587207  0.1635139556670640  0.9954259658322677
  0.1550432585058769  0.1596304462768311  0.4976319222910163
  0.1567925369295818  0.6603866327586115  0.0004707026047947
  0.1601693694785248  0.6605930071903784  0.4970832071165902
  0.6582378052812163  0.1555386269881355  0.0070545366435627
  0.6612044941977373  0.1617397601594659  0.5003465084632407
  0.6600852255129818  0.6649110602619891  0.0086431871420369
  0.6510836494869888  0.6605433185285101  0.5066711329001974
  0.3368781670676082  0.3524244610904439  0.0013137950568679
  0.3390295548997103  0.3432119422202757  0.5002277052602733
  0.3352744833529174  0.8238117295631794  0.9979668669285787
  0.3408598809929875  0.8396139110716949  0.4980837998620005
  0.8308208343293001  0.3360924308480368  0.0093018933292515
  0.8443473357049505  0.3285529306022397  0.5089846413819744
  0.8356268073666443  0.8368469125019937  0.9944728259712124
  0.8327282573466734  0.8429902151631269  0.4943766370460025
  0.3387801987226690  0.1679043542260770  0.0026955649581493
  0.3349629997151865  0.1603624995651248  0.4956250781306547
  0.3358922030836405  0.6495612173396922  0.0010104590883772
  0.3412460175296373  0.6620593961384276  0.4995500377266082
  0.8438461755664887  0.1563146925311817  0.9981593236141590
  0.8387699222602889  0.1621896017505260  0.5034997718376468
  0.8392987742561697  0.6638763889717845  0.9926012604253049
  0.8375846484460995  0.6710048466117186  0.5053995226391784
  0.1585866805539708  0.3443538992680804  0.9963127157449737
  0.1677354819757612  0.3404778794113295  0.5097676849649213
  0.1709705090950888  0.8421951795103745  0.9951823146522447
  0.1610834314882712  0.8397898995838181  0.4877939301650704
  0.6597872553390315  0.3424671403908477  0.9948898287042495
  0.6626587507465592  0.3398173820956468  0.5062319155247749
  0.6517860772326232  0.8361755103693443  0.0055477930391536
  0.6561511812042852  0.8369705646332886  0.4925172834739946
  0.0060160548288518  0.1606709181325593  0.3377305770029734
  0.0073265133848110  0.1592389082151495  0.8360997439978873
  0.9881614888989341  0.6646798799166321  0.3427835755184703
  0.9985290410301375  0.6657788069702467  0.8401493705729244
  0.5043484958109851  0.1561353228317303  0.3439875237941923
  0.4924739997308879  0.1553226016860081  0.8384773184432359
  0.4916360307944332  0.6498399375898836  0.3418631225635186
  0.5055312001189233  0.6583778269131469  0.8361550599849270
  0.0047047031153449  0.3296463308572917  0.1590225602925755
  0.0045699847934410  0.3375402846967310  0.6555013648452922
  0.0056780228332298  0.8439141317766493  0.1513228364785544
  0.0000661039952077  0.8399127977636279  0.6579510485679184
  0.5003390557166661  0.3415577372510301  0.1618847129235240
  0.5058708998386385  0.3380120414907305  0.6610195895460210
  0.4993230827883671  0.8382737798480876  0.1672590273899923
  0.5006423983437582  0.8398808803463736  0.6660182229713445
  0.0140723237315893  0.3441806249089568  0.3417437732338204
  0.9961970075201564  0.3361112763736898  0.8318853942595079
  0.0043149071468100  0.8434609547029761  0.3343793816398347
  0.9985192695998629  0.8363161844279426  0.8397656078228303
  0.4988658629259879  0.3428486339675978  0.3288390092386386
  0.4959017185392651  0.3366198923277238  0.8417777096519820
  0.5043628073114298  0.8422115578229054  0.3477387203958018
  0.5035311353962958  0.8289586368325634  0.8387050982100924
  0.0088702251703805  0.1650487166907844  0.1677078009590272
  0.0057764442708335  0.1694979170926475  0.6586775947352908
  0.9934703628473327  0.6538659225058899  0.1610390134613721
  0.9994333589040640  0.6640138942343986  0.6523723775525724
  0.4991080615783470  0.1542429350490057  0.1698764403003078
  0.5002607732425230  0.1581105929630400  0.6600159325500830
  0.5033176205689971  0.6604149186528274  0.1600610498023159
  0.4954386350186340  0.6540255694278612  0.6592175082199686
  0.1619519790608949  0.0051556547684737  0.3381611624582810
  0.1519085671502693  0.9996540507706944  0.8353316288693640
  0.1557756297983812  0.4970546172130997  0.3426797464817709
  0.1628105006056955  0.5011448040496738  0.8444270870512116
  0.6635685651585279  0.9991981591879662  0.3383530531587634
  0.6476462008406794  0.9972328115907604  0.8390972326857123
  0.6602523164531827  0.4868000314194686  0.3349071770501887
  0.6493385575203161  0.5003906847213035  0.8322004898628335
  0.3411342564571654  0.0072640799168585  0.1579977465909046
  0.3435804586092034  0.0037588258570515  0.6535234562749523
  0.3328314149757583  0.5042632691212354  0.1610312082623512
  0.3400918303920434  0.5032450519741607  0.6635487997732341
  0.8435201466826477  0.9927998700453403  0.1600346864054942
  0.8427059315634452  0.0126455803557626  0.6622023699588182
  0.8398666301673140  0.4925703412148396  0.1612187153220422
  0.8467307205576019  0.5074539415804037  0.6590244127056333
  0.1658986981750109  0.9991161047693523  0.1683678406222260
  0.1693460523301649  0.9952332791182280  0.6572275717438707
  0.1508097651820041  0.4989609568535817  0.1627157197567856
  0.1569771159750223  0.4956858654675607  0.6585387198055058
  0.6700366243699291  0.9974734483606787  0.1651146529349479
  0.6613304955626588  0.9913492957410552  0.6612241764364815
  0.6604176524482196  0.4994590411413684  0.1639281512529727
  0.6665638740586481  0.5001392662131861  0.6597265427475497
  0.3474528796044083  0.0052710136476152  0.3389408467389957
  0.3404130845450282  0.0027190698152818  0.8355320567050782
  0.3375653752871015  0.4963239219859512  0.3373397085650746
  0.3341767359123081  0.5126735948387093  0.8368819924920797
  0.8396973952629694  0.9944781676595362  0.3342174734058792
  0.8472797278470077  0.0065183073729800  0.8439267864868284
  0.8367722884869903  0.5066948934656291  0.3326405462893856
  0.8425663698308049  0.5080060804112839  0.8416968546310442
  0.1094936378824479  0.1146597382605243  0.3939439348397047
  0.1188111571952726  0.1140133305573729  0.8852555215720518
  0.1040791157631417  0.6074102111093573  0.3887661050998356
  0.1023046099464362  0.6031839562712619  0.8860261878982510
  0.6196189863031896  0.1179675916710363  0.3850663813737186
  0.6039818764491688  0.1067530283380662  0.8846650715227923
  0.6149341825613636  0.6085607587702534  0.3874018930347154
  0.6175439242576736  0.6170033253188087  0.8980847763130811
  0.3871289630760373  0.3872821599299012  0.3881121861735420
  0.3745154767537790  0.3937576794236060  0.8816714271865189
  0.3870380915765499  0.8949792023045798  0.3743800805626989
  0.4000453277014067  0.8805350158244863  0.8912668510208593
  0.8936832152016527  0.3802451449050547  0.3868253708634936
  0.8935766390076691  0.4013289049660964  0.8975188195034481
  0.8842978256800376  0.8841439136236893  0.3891020351719965
  0.8892690536132580  0.8928555646204694  0.8915549228942891
  0.3890324747366751  0.1104457863199532  0.1056290610151179
  0.3882958330183550  0.1081390645865839  0.6047376220122912
  0.4013555497361089  0.6108480637187527  0.1039859133808035
  0.3862208751061598  0.6118417581975203  0.6092036559793269
  0.8967464666210223  0.1025411872428952  0.1143336080944287
  0.8987461635757507  0.1196570407480772  0.6123276500597298
  0.8799915277474770  0.6048679656931876  0.1137719226322004
  0.8769129698823482  0.6161677356107221  0.6051328628462439
  0.1164414851586446  0.3936123574357374  0.1034196537859188
  0.1073348218307424  0.3930908755551187  0.6021271854087751
  0.1192671525415828  0.8802035102925745  0.1042112935899859
  0.1104279765247079  0.8853599563635356  0.6087009336869931
  0.6111346605373590  0.3817978910216047  0.1146441003888422
  0.6097587904690386  0.4027387063866721  0.5969261146269441
  0.6064091132047692  0.8953590176613430  0.1085749420516835
  0.6165957080313497  0.8839953807049026  0.6109166050678813
  0.3838396760128182  0.3872633783934236  0.1123017152037061
  0.3867051803524403  0.3789781930498897  0.6237448637650105
  0.3864832587741420  0.8876688788448421  0.1160893618262783
  0.3809541776094901  0.8772988446110420  0.6169077248168079
  0.9002031250736795  0.3846097119049509  0.1138147621430321
  0.8879561244906025  0.3949616660596975  0.6164259165532161
  0.8830731525962856  0.8779599838651158  0.1192519385667776
  0.8825136390476686  0.8935902448266193  0.6148308758852080
  0.1214289684299025  0.1126795286968663  0.1248579166078565
  0.1185953691718333  0.1104010195235374  0.6116025073509908
  0.1078559689632267  0.6104837772138805  0.1015059991569453
  0.1147483768666322  0.6195024992187316  0.6171534935558237
  0.6077478951915265  0.1106200174658173  0.1212022445779154
  0.6006179993312858  0.1082687677421849  0.6081064802105477
  0.6081662487120634  0.6244697125625537  0.1155472451442999
  0.6163572413359517  0.6038467813059017  0.6181814384990504
  0.1094093425856951  0.3955396973503981  0.3897019739441384
  0.1018833826922295  0.3911419974664168  0.8999203534123075
  0.1005660411405599  0.8972142243296742  0.3928182003365029
  0.1061920696238281  0.8874510514167961  0.8904018452984253
  0.5994462674971953  0.3927037009194813  0.3972995001245513
  0.6143247796324861  0.3929001922004243  0.8875940136418335
  0.6064961039793705  0.8962605550683826  0.3916179698635376
  0.6034518838185643  0.8904565031091346  0.8853190023954113
  0.3988652423860156  0.1071465185846683  0.3969363316679811
  0.3989833086402598  0.1067798016669702  0.8968488470331692
  0.3793445332167595  0.6058669993109430  0.3794839048136436
  0.3919955041284421  0.6150675921352864  0.8852328470712271
  0.8882974315200626  0.1057082323967694  0.3828955899543748
  0.9064698731500556  0.1098341557056388  0.8957316010775663
  0.8790751744306181  0.6175331975014396  0.4025025776926980
  0.8936370163392425  0.6097419663657062  0.8907662369946336
 
  0.50470057E-02  0.39057439E-02 -0.16035734E-02
 -0.32376893E-02  0.15658099E-02  0.20701723E-02
 -0.45039099E-02  0.59693623E-03 -0.65876461E-02
 -0.12410401E-02 -0.48310286E-03 -0.43677237E-02
 -0.47444741E-02 -0.76835420E-02  0.66279832E-02
 -0.88335621E-03  0.12844392E-02  0.31217688E-02
  0.88645319E-03  0.64479966E-02  0.10745033E-01
 -0.10574134E-01 -0.11322109E-02  0.62954193E-02
 -0.61657374E-02  0.15445527E-01 -0.21179281E-02
  0.20639057E-02  0.39993592E-02  0.29985464E-02
  0.15416744E-02 -0.16846610E-01 -0.19025241E-02
  0.23481206E-02  0.17785705E-02 -0.63467084E-02
 -0.61663071E-02 -0.18212583E-02  0.97884004E-02
  0.78454730E-02 -0.79996075E-02  0.84075873E-02
 -0.58165405E-02 -0.18843609E-02 -0.45165792E-02
 -0.92313346E-02  0.48748835E-02 -0.10971424E-02
  0.12652827E-02  0.10509558E-01  0.85138780E-03
 -0.61298609E-02  0.44487134E-03 -0.48825775E-02
 -0.40060931E-02 -0.15147797E-01 -0.54988461E-04
  0.10128152E-02  0.93739637E-03 -0.44763760E-02
  0.66406999E-02 -0.69979053E-02  0.20494367E-02
  0.17371613E-02 -0.26874388E-02  0.12728889E-02
 -0.34065534E-03  0.20914544E-02 -0.57989729E-02
 -0.10891102E-01  0.19688619E-01  0.61408968E-02
  0.16571168E-02  0.33519126E-02 -0.16333261E-02
  0.94332821E-02 -0.19893141E-03  0.47460040E-02
  0.11340150E-01  0.20157669E-02 -0.95850878E-02
  0.65853220E-04  0.20417919E-03 -0.11752316E-01
 -0.25856454E-02  0.24090198E-02 -0.34867077E-02
  0.44248215E-02 -0.15142201E-02  0.16795442E-02
 -0.12091083E-01 -0.16794653E-02  0.35274531E-02
 -0.57612676E-02 -0.36928410E-02 -0.67567488E-02
  0.33229440E-02  0.17756357E-02 -0.29321145E-05
  0.11268789E-01  0.12653329E-03 -0.50956937E-02
 -0.15069939E-01  0.41188488E-02  0.58871046E-02
 -0.15756938E-02  0.45563377E-02 -0.10300074E-02
  0.57197943E-02 -0.30973228E-02  0.51915138E-02
 -0.33715387E-02 -0.37291136E-02 -0.45664638E-02
 -0.52867771E-02 -0.12730722E-01  0.15687319E-02
  0.91646137E-02 -0.44928381E-02 -0.24388340E-02
  0.12048528E-01 -0.83980698E-02 -0.12755396E-02
  0.29294238E-02  0.15521755E-02 -0.73757716E-02
  0.67205032E-02  0.22205710E-02 -0.11052206E-01
 -0.32762543E-02  0.18317752E-02 -0.44129323E-02
 -0.37926270E-02  0.65881992E-03 -0.64185476E-03
  0.96218967E-02 -0.10275988E-02 -0.27927990E-03
 -0.16612864E-02 -0.15086323E-03  0.86068025E-02
  0.16356179E-02 -0.69166451E-03  0.53890350E-02
  0.79104504E-02  0.42911548E-03 -0.99106430E-03
 -0.52480249E-02 -0.66864783E-03 -0.49164309E-02
 -0.17321266E-03  0.46495271E-02 -0.81443198E-02
 -0.32942489E-02 -0.21455648E-02  0.60504423E-03
 -0.21947703E-02  0.33859772E-02 -0.92173854E-02
 -0.67540963E-02 -0.20165175E-02  0.39045974E-02
  0.59411477E-03  0.17635266E-03  0.71806553E-02
  0.41510817E-02 -0.13728593E-01 -0.14068785E-02
  0.10867209E-01 -0.41456103E-03  0.68678841E-02
  0.12410755E-01  0.83486167E-02 -0.28017410E-02
 -0.86752132E-02 -0.78961405E-02 -0.84750491E-03
 -0.49019576E-02  0.52317110E-02 -0.96394979E-02
 -0.45778560E-02 -0.70532601E-02  0.12331351E-01
 -0.44916175E-02 -0.18111592E-02  0.23889228E-03
 -0.35745313E-02  0.49460241E-02  0.55583171E-02
 -0.84394660E-03 -0.79154758E-02 -0.13119763E-02
  0.18467382E-02  0.66749323E-02  0.23306275E-02
 -0.94846375E-02 -0.31120312E-02 -0.59438980E-02
 -0.40727885E-02  0.11891253E-02  0.18355952E-02
 -0.24381864E-03 -0.26856346E-02  0.59732380E-02
  0.43608754E-02  0.13484769E-02 -0.39086853E-03
 -0.13265988E-01 -0.28106501E-02 -0.26941172E-02
 -0.17602967E-02 -0.13695136E-01 -0.23377346E-02
 -0.11217633E-01  0.60792454E-02 -0.82857436E-02
  0.24384360E-02  0.46742053E-02 -0.22454838E-02
  0.49320654E-02 -0.11486298E-04 -0.75618955E-02
 -0.68108842E-02  0.60994566E-02 -0.12770129E-02
 -0.23686652E-03  0.47388008E-03  0.28873885E-02
  0.65118095E-02 -0.86054452E-02 -0.41108372E-03
  0.51054731E-02  0.14721983E-01  0.30814691E-02
  0.16497498E-02 -0.10954221E-01 -0.63787611E-03
  0.68765824E-02  0.10407033E-01  0.15853378E-02
  0.70176000E-02 -0.37757143E-02  0.67777305E-02
  0.91871441E-02 -0.69887144E-02 -0.58462779E-02
 -0.12425258E-01  0.20075959E-02  0.24298601E-02
 -0.34579231E-02 -0.11702846E-02 -0.63995249E-03
  0.93118993E-02 -0.30299747E-02  0.38455984E-02
  0.46247507E-03 -0.64721605E-02  0.11030709E-02
 -0.26511259E-02 -0.64645296E-03  0.14061376E-02
  0.11465038E-01 -0.41556635E-02 -0.17593128E-03
  0.76827063E-02  0.12240435E-01 -0.46903941E-02
  0.36494518E-02  0.37684860E-03 -0.24544872E-02
 -0.60616404E-02 -0.87238446E-02 -0.45710808E-02
 -0.59361836E-02  0.15228755E-01 -0.32725115E-02
  0.10251007E-02 -0.78118750E-02 -0.55976456E-02
  0.75584670E-02  0.84713773E-02  0.48325582E-02
 -0.98940493E-03  0.58060975E-02 -0.29336142E-02
  0.85782241E-03  0.62607370E-02  0.17029572E-03
 -0.15011513E-02 -0.49373108E-02 -0.55018336E-02
  0.94299606E-02  0.45534958E-02 -0.62571341E-02
 -0.11904613E-01 -0.90823923E-03  0.11140972E-02
 -0.95551463E-02 -0.78773905E-03  0.22631887E-02
  0.16221541E-01  0.44181474E-02 -0.62441782E-02
 -0.70501666E-02  0.18785517E-02  0.29801153E-02
  0.47397003E-03 -0.51889683E-02 -0.34172574E-02
  0.25509300E-02  0.24640739E-02  0.16552962E-02
 -0.21554380E-02 -0.20764212E-02 -0.35028390E-02
 -0.12381841E-01  0.54935701E-02 -0.11991468E-01
  0.78594773E-03 -0.92359728E-02 -0.48575695E-02
  0.11804823E-02 -0.65774719E-02  0.43115797E-02
  0.19552093E-02 -0.71153524E-02 -0.14226272E-02
  0.52876158E-02  0.68304468E-02  0.12775821E-01
  0.12592354E-02 -0.34060964E-02 -0.12919994E-01
  0.37683558E-02  0.25970587E-02  0.14367055E-02
  0.50549240E-02  0.54470605E-02 -0.41584374E-02
  0.23925184E-02  0.46041339E-02 -0.10466292E-01
  0.73782153E-02 -0.94754807E-02 -0.69793122E-02
 -0.46758289E-02 -0.10835101E-02 -0.39664322E-02
  0.12857146E-01 -0.52251158E-02  0.11787493E-02
  0.74690358E-02  0.11107000E-01 -0.69682607E-03
 -0.10724379E-01 -0.20867618E-02 -0.22542344E-02
 -0.18213087E-04  0.71855432E-02  0.82210720E-02
 -0.24275390E-02 -0.15571222E-02 -0.19619380E-02
 -0.10022739E-01  0.80628393E-02 -0.37766448E-02
  0.12583671E-01 -0.11616826E-02  0.56699694E-04
  0.65552043E-02 -0.29835686E-02 -0.72166347E-02
  0.73097088E-02 -0.22829393E-02  0.82430650E-03
 -0.11732684E-01  0.17902544E-01 -0.26882250E-02
 -0.59802199E-02  0.97902525E-02  0.23623557E-02
  0.24105054E-02 -0.13018037E-01 -0.23421920E-02
 -0.23503786E-02  0.38506279E-02  0.11213927E-01
 -0.78880055E-02 -0.76271950E-02  0.13557233E-01
 -0.70246359E-02 -0.44006692E-02  0.37187024E-02
 -0.85103325E-02 -0.11505451E-01  0.79202826E-02
  0.33695916E-02 -0.44690998E-02  0.13071655E-02
  0.64367439E-02 -0.40934012E-02  0.38501175E-02
 -0.81784516E-02 -0.18588374E-01  0.31010584E-02
 -0.81924400E-02  0.60212648E-02  0.27089871E-02
  0.15191958E-01  0.77116774E-02  0.11040662E-01
  0.69015897E-02  0.91973343E-03  0.37826166E-02
 -0.13021494E-01 -0.73670407E-02  0.36063476E-02
  0.95364395E-02  0.63106243E-02  0.43297013E-02
  0.60027481E-02 -0.44145674E-02  0.10036449E-01
  0.18281113E-02 -0.12770805E-01 -0.95019630E-02
  0.20665659E-01 -0.65375644E-04  0.52338549E-02
 -0.63784168E-02  0.70639050E-02  0.68793216E-02
  0.16679444E-01  0.46306727E-02  0.20003572E-01
 -0.17228592E-01  0.10143648E-01 -0.63485494E-02
 -0.61314969E-02  0.19339200E-01  0.19111283E-02
 -0.25097113E-02  0.17630975E-02  0.45291080E-03
 -0.12365812E-01  0.89828263E-03  0.94876806E-02
 -0.49032727E-02 -0.25743583E-02 -0.18665400E-02
 -0.10077790E-02  0.13358402E-01  0.58913641E-02
 -0.41748287E-02 -0.71387817E-02  0.53603565E-02
  0.12380364E-01 -0.44339229E-02  0.10782348E-01
 -0.76254531E-02 -0.12893628E-01  0.18122145E-01
 -0.14755691E-01  0.22819781E-02 -0.64645806E-03
  0.26633012E-02  0.75152959E-02 -0.28688857E-02
  0.80786969E-03 -0.90637454E-04 -0.28354008E-02
  0.20485580E-01 -0.24531914E-02  0.96315807E-02
 -0.72583496E-02  0.29875201E-03 -0.25827997E-02
  0.80526290E-02  0.91135519E-02  0.53697805E-02
 
           1
   3.00000000000000     
  0.10000000E+01  0.00000000E+00  0.00000000E+00  0.00000000E+00
  0.16576507E+00  0.16438833E+00  0.99506698E+00
  0.15431844E+00  0.15998098E+00  0.49809537E+00
  0.15578425E+00  0.66052027E+00  0.99899593E+00
  0.15989154E+00  0.66048486E+00  0.49610541E+00
  0.65717566E+00  0.15381852E+00  0.85383373E-02
  0.66100674E+00  0.16202731E+00  0.50104538E+00
  0.66028367E+00  0.66635457E+00  0.11048668E-01
  0.64871643E+00  0.66028985E+00  0.50808048E+00
  0.33549785E+00  0.35588224E+00  0.83965641E-03
  0.33949160E+00  0.34410728E+00  0.50089899E+00
  0.33561962E+00  0.82004029E+00  0.99754095E+00
  0.34138555E+00  0.84001208E+00  0.49666297E+00
  0.82944039E+00  0.33568471E+00  0.11493214E-01
  0.84610369E+00  0.32676207E+00  0.51086684E+00
  0.83432466E+00  0.83642506E+00  0.99346170E+00
  0.83066165E+00  0.84408155E+00  0.49413102E+00
  0.33906346E+00  0.17025712E+00  0.28861644E-02
  0.33359071E+00  0.16046209E+00  0.49453202E+00
  0.33499536E+00  0.64617009E+00  0.99814887E-03
  0.34147276E+00  0.66226925E+00  0.49854792E+00
  0.84533282E+00  0.15474808E+00  0.99861813E+00
  0.83915882E+00  0.16158797E+00  0.50378473E+00
  0.83922251E+00  0.66434460E+00  0.99130305E+00
  0.83514647E+00  0.67541252E+00  0.50677428E+00
  0.15895766E+00  0.34510429E+00  0.99594706E+00
  0.16984730E+00  0.34043334E+00  0.51083017E+00
  0.17350922E+00  0.84264645E+00  0.99303651E+00
  0.16109817E+00  0.83983561E+00  0.48516295E+00
  0.65920841E+00  0.34300645E+00  0.99410926E+00
  0.66364933E+00  0.33947840E+00  0.50660791E+00
  0.64907926E+00  0.83579953E+00  0.63374808E-02
  0.65486141E+00  0.83614385E+00  0.49100466E+00
  0.67599593E-02  0.16106843E+00  0.33772992E+00
  0.98492471E-02  0.15926724E+00  0.83495898E+00
  0.98478780E+00  0.66560196E+00  0.34410152E+00
  0.99817629E+00  0.66679883E+00  0.83991878E+00
  0.50562898E+00  0.15544193E+00  0.34514974E+00
  0.49171922E+00  0.15448777E+00  0.83745503E+00
  0.49045248E+00  0.64698992E+00  0.34221431E+00
  0.50758287E+00  0.65737202E+00  0.83560908E+00
  0.74019963E-02  0.32776626E+00  0.15873701E+00
  0.52257923E-02  0.33788777E+00  0.65385016E+00
  0.71825358E-02  0.84441125E+00  0.14884859E+00
  0.99933265E+00  0.84032288E+00  0.65696313E+00
  0.49949000E+00  0.34170523E+00  0.16174102E+00
  0.50802495E+00  0.33778199E+00  0.66095707E+00
  0.49895117E+00  0.83824001E+00  0.16918582E+00
  0.50100856E+00  0.83972604E+00  0.66722466E+00
  0.15843229E-01  0.34427669E+00  0.34152190E+00
  0.99502214E+00  0.33596159E+00  0.83078476E+00
  0.42761302E-02  0.84450184E+00  0.33255612E+00
  0.99778179E+00  0.83583586E+00  0.83990106E+00
  0.49837452E+00  0.34360665E+00  0.32677552E+00
  0.49438969E+00  0.33616846E+00  0.84265183E+00
  0.50449581E+00  0.84225104E+00  0.34934625E+00
  0.50446043E+00  0.82588523E+00  0.83839014E+00
  0.11303058E-01  0.16495591E+00  0.16924531E+00
  0.85548288E-02  0.17136691E+00  0.65805037E+00
  0.99152825E+00  0.65209822E+00  0.16084928E+00
  0.99833596E+00  0.66518511E+00  0.65021439E+00
  0.49808322E+00  0.15266393E+00  0.17263705E+00
  0.49925524E+00  0.15770513E+00  0.66006941E+00
  0.50251739E+00  0.66152218E+00  0.16130539E+00
  0.49524970E+00  0.65225354E+00  0.65892380E+00
  0.16236541E+00  0.66499659E-02  0.33868292E+00
  0.14978525E+00  0.99895736E+00  0.83400097E+00
  0.15486386E+00  0.49732083E+00  0.34309068E+00
  0.16275592E+00  0.50054357E+00  0.84576431E+00
  0.66454483E+00  0.99950004E+00  0.33826555E+00
  0.64467636E+00  0.99660359E+00  0.83849410E+00
  0.65985824E+00  0.48373411E+00  0.33438383E+00
  0.64682728E+00  0.50175164E+00  0.83034557E+00
  0.34168015E+00  0.83104900E-02  0.15749505E+00
  0.34468460E+00  0.37562544E-02  0.65183058E+00
  0.33130667E+00  0.50562875E+00  0.16074532E+00
  0.34003880E+00  0.50335114E+00  0.66419520E+00
  0.84497794E+00  0.99087338E+00  0.15994266E+00
  0.84384889E+00  0.15941377E-01  0.66289222E+00
  0.84023596E+00  0.49011803E+00  0.16107591E+00
  0.84827017E+00  0.50978375E+00  0.65937932E+00
  0.16746972E+00  0.99827084E+00  0.16988517E+00
  0.17140277E+00  0.99366872E+00  0.65591877E+00
  0.14802813E+00  0.49941040E+00  0.16325969E+00
  0.15620299E+00  0.49542387E+00  0.65839545E+00
  0.67212127E+00  0.99679513E+00  0.16597556E+00
  0.66143403E+00  0.98990038E+00  0.66147112E+00
  0.65982415E+00  0.49931432E+00  0.16424294E+00
  0.66913054E+00  0.49920894E+00  0.65968716E+00
  0.34917280E+00  0.80112688E-02  0.33789081E+00
  0.34123008E+00  0.28034346E-02  0.83498257E+00
  0.33620836E+00  0.49437092E+00  0.33631638E+00
  0.33284781E+00  0.51608284E+00  0.83614938E+00
  0.83992688E+00  0.99272933E+00  0.33296433E+00
  0.84897184E+00  0.84147870E-02  0.84500865E+00
  0.83655079E+00  0.50799470E+00  0.33198380E+00
  0.84275841E+00  0.50940767E+00  0.84173498E+00
  0.10915758E+00  0.11355443E+00  0.39271224E+00
  0.12092223E+00  0.11503272E+00  0.88385474E+00
  0.10141404E+00  0.60720688E+00  0.38901552E+00
  0.10016551E+00  0.60300761E+00  0.88653285E+00
  0.62325049E+00  0.11895668E+00  0.38366850E+00
  0.60240356E+00  0.10717358E+00  0.88533223E+00
  0.61504029E+00  0.60739911E+00  0.38663687E+00
  0.61811500E+00  0.61755496E+00  0.89845535E+00
  0.38664643E+00  0.38681731E+00  0.38732801E+00
  0.37174357E+00  0.39498752E+00  0.87898691E+00
  0.38721404E+00  0.89291155E+00  0.37329262E+00
  0.40030960E+00  0.87906252E+00  0.89223208E+00
  0.89412093E+00  0.37865224E+00  0.38650689E+00
  0.89476037E+00  0.40285803E+00  0.90037893E+00
  0.88457973E+00  0.88338139E+00  0.38620965E+00
  0.89011267E+00  0.89343697E+00  0.89187656E+00
  0.39016412E+00  0.11166521E+00  0.10469812E+00
  0.38883144E+00  0.10916979E+00  0.60239454E+00
  0.40300730E+00  0.60872680E+00  0.10242346E+00
  0.38517410E+00  0.61159919E+00  0.60831569E+00
  0.89962478E+00  0.10137145E+00  0.11459749E+00
  0.90041825E+00  0.12214355E+00  0.61217165E+00
  0.87759067E+00  0.60440080E+00  0.11326727E+00
  0.87690889E+00  0.61777636E+00  0.60697331E+00
  0.11589803E+00  0.39326377E+00  0.10298044E+00
  0.10509104E+00  0.39489590E+00  0.60128171E+00
  0.12208425E+00  0.87994345E+00  0.10422399E+00
  0.11189548E+00  0.88469203E+00  0.60708535E+00
  0.61277108E+00  0.38128681E+00  0.11482864E+00
  0.60713221E+00  0.40674653E+00  0.59632430E+00
  0.60507033E+00  0.89755075E+00  0.10910380E+00
  0.61713535E+00  0.88108104E+00  0.61039226E+00
  0.38331350E+00  0.38812542E+00  0.11481217E+00
  0.38493930E+00  0.37727070E+00  0.62677991E+00
  0.38491066E+00  0.88668370E+00  0.11692186E+00
  0.37904898E+00  0.87472313E+00  0.61868083E+00
  0.90095747E+00  0.38360922E+00  0.11410740E+00
  0.88939711E+00  0.39404528E+00  0.61728784E+00
  0.88124225E+00  0.87379862E+00  0.11994617E+00
  0.88067960E+00  0.89493822E+00  0.61543733E+00
  0.12482998E+00  0.11440593E+00  0.12732958E+00
  0.12014042E+00  0.11060692E+00  0.61244932E+00
  0.10494086E+00  0.60883452E+00  0.10231335E+00
  0.11688329E+00  0.62091525E+00  0.61812278E+00
  0.60909173E+00  0.10963173E+00  0.12344910E+00
  0.60102726E+00  0.10540978E+00  0.60597928E+00
  0.61279265E+00  0.62445508E+00  0.11671894E+00
  0.61492931E+00  0.60542817E+00  0.61972151E+00
  0.11314335E+00  0.39657636E+00  0.39418016E+00
  0.98026433E-01  0.39341285E+00  0.89849911E+00
  0.99193388E-01  0.90154367E+00  0.39324604E+00
  0.10563022E+00  0.88784575E+00  0.89050324E+00
  0.59667794E+00  0.39290480E+00  0.39942350E+00
  0.61322709E+00  0.39232387E+00  0.88717615E+00
  0.60627049E+00  0.89925109E+00  0.39293686E+00
  0.60251727E+00  0.88885835E+00  0.88651902E+00
  0.40163682E+00  0.10615390E+00  0.39935017E+00
  0.39727621E+00  0.10389332E+00  0.90090584E+00
  0.37604119E+00  0.60637786E+00  0.37933918E+00
  0.39259173E+00  0.61675003E+00  0.88459059E+00
  0.88847829E+00  0.10568794E+00  0.38226083E+00
  0.91105596E+00  0.10928496E+00  0.89788781E+00
  0.87745025E+00  0.61760008E+00  0.40192437E+00
  0.89543975E+00  0.61178221E+00  0.89196836E+00
  0.11465610E-02  0.87180418E-03 -0.58806983E-03
 -0.97174409E-03  0.19730934E-03  0.21445689E-03
 -0.10569730E-02  0.88146382E-04 -0.11803795E-02
 -0.27187120E-03 -0.10522832E-03 -0.97601490E-03
 -0.10348498E-02 -0.17431697E-02  0.16506694E-02
 -0.14463508E-03  0.29487144E-03  0.58609540E-03
  0.85695038E-04  0.14308437E-02  0.25490948E-02
 -0.25400134E-02 -0.22891560E-03  0.15944228E-02
 -0.12695247E-02  0.36404700E-02 -0.29364458E-03
  0.35401534E-03  0.99557941E-03  0.54254746E-03
 -0.29065435E-05 -0.40467574E-02 -0.47102309E-03
  0.54406422E-03  0.36249493E-03 -0.12784068E-02
 -0.16691980E-02 -0.52021666E-03  0.23737614E-02
  0.17514621E-02 -0.21622327E-02  0.21115767E-02
 -0.12658047E-02 -0.48672768E-03 -0.11774112E-02
 -0.20901728E-02  0.10969119E-02 -0.55187752E-03
  0.20667810E-03  0.23470680E-02  0.33032372E-03
 -0.13777553E-02  0.34928847E-04 -0.11653918E-02
 -0.93706448E-03 -0.34668391E-02  0.62211511E-04
  0.34154446E-03  0.23714687E-03 -0.83158034E-03
  0.15063217E-02 -0.15631752E-02  0.23351701E-03
  0.29113032E-03 -0.38047561E-03  0.47079348E-03
 -0.32328823E-04  0.56588879E-03 -0.15558993E-02
 -0.20672535E-02  0.42319372E-02  0.14868997E-02
  0.16410085E-03  0.93837523E-03 -0.49262821E-03
  0.21438139E-02  0.55910998E-04  0.14840941E-02
  0.27310640E-02  0.55575937E-03 -0.20428562E-02
  0.19645456E-04  0.83750002E-04 -0.29183867E-02
 -0.53727093E-03  0.66836046E-03 -0.98190505E-03
  0.92487899E-03 -0.23504422E-03  0.69194476E-03
 -0.27768805E-02 -0.51101809E-03  0.99159284E-03
 -0.13502177E-02 -0.79560620E-03 -0.17233669E-02
  0.10190860E-02  0.30086138E-03 -0.98741083E-04
  0.25083685E-02 -0.99345263E-04 -0.11100758E-02
 -0.35044380E-02  0.98851413E-03  0.13131015E-02
 -0.39202961E-03  0.11450823E-02 -0.10424215E-03
  0.12947366E-02 -0.88154943E-03  0.12506804E-02
 -0.10562464E-02 -0.10238257E-02 -0.88800867E-03
 -0.15139514E-02 -0.30181697E-02  0.46221443E-03
  0.20145615E-02 -0.95871253E-03 -0.63655469E-03
  0.24920058E-02 -0.21680443E-02 -0.34441819E-03
  0.83690894E-03  0.16337729E-03 -0.16969787E-02
  0.15932648E-02  0.73025162E-03 -0.26176065E-02
 -0.59197053E-03  0.36526202E-03 -0.97845422E-03
 -0.67583967E-03  0.28003675E-03 -0.23248958E-04
  0.21463373E-02 -0.26928221E-03 -0.46486367E-04
 -0.33607750E-03 -0.10266618E-03  0.19730940E-02
  0.34592523E-03 -0.60062749E-04  0.13227126E-02
  0.23353449E-02  0.40551175E-03 -0.22168590E-04
 -0.11834177E-02 -0.32827871E-03 -0.13678237E-02
  0.24526332E-03  0.11239169E-02 -0.17670110E-02
 -0.69373320E-03 -0.58426786E-03  0.15255568E-03
 -0.46785729E-03  0.86190724E-03 -0.23711616E-02
 -0.14763010E-02 -0.52864429E-03  0.88997258E-03
  0.40394072E-03  0.25251378E-03  0.18686577E-02
  0.10035914E-02 -0.31519003E-02 -0.29134787E-03
  0.25318453E-02  0.23762685E-03  0.16962746E-02
  0.26016805E-02  0.20866427E-02 -0.65122931E-03
 -0.19747109E-02 -0.18907219E-02 -0.14613732E-03
 -0.95250365E-03  0.11455980E-02 -0.23023885E-02
 -0.90111759E-03 -0.17033432E-02  0.28249856E-02
 -0.81842616E-03 -0.49918074E-03  0.10309411E-04
 -0.47952179E-03  0.89133163E-03  0.96716697E-03
 -0.44520728E-03 -0.18875616E-02 -0.35380503E-03
  0.39313717E-03  0.15442700E-02  0.35152351E-03
 -0.23105596E-02 -0.58146562E-03 -0.13095483E-02
 -0.10893094E-02 -0.36880629E-04  0.58175284E-03
  0.10797564E-03 -0.41993109E-03  0.14333668E-02
  0.94782174E-03  0.17965100E-03 -0.12034233E-03
 -0.32519403E-02 -0.69205883E-03 -0.48940826E-03
 -0.35906870E-03 -0.33369800E-02 -0.70876413E-03
 -0.27720707E-02  0.11282166E-02 -0.19679678E-02
  0.57045379E-03  0.13370749E-02 -0.58943057E-03
  0.11783115E-02  0.26548021E-03 -0.18528851E-02
 -0.16397551E-02  0.13832724E-02 -0.22510897E-03
  0.37026513E-04  0.30628603E-03  0.70009218E-03
  0.14451210E-02 -0.20260856E-02 -0.11950942E-03
  0.11559177E-02  0.34867926E-02  0.63350761E-03
  0.35096957E-03 -0.24693606E-02 -0.86578161E-04
  0.17262450E-02  0.24130216E-02  0.15359701E-03
  0.15863109E-02 -0.75196947E-03  0.17252132E-02
  0.22234185E-02 -0.15714804E-02 -0.12899583E-02
 -0.28923782E-02  0.29405803E-03  0.55586962E-03
 -0.89392368E-03 -0.51959707E-03 -0.28790700E-03
  0.22882314E-02 -0.71243065E-03  0.97479130E-03