N N
1.0
24 0 0 
0 16 0
0 0 16
N
2 
Cartesian
0.00 0.00 0.00 N
8.00 0.00 0.00 N
