Si12 N16
1.0
7.660308 0.000000 0.000000
-3.830154 6.634021 0.000000
0.000000 0.000000 5.850170
Si N
12 16
direct
0.231244 0.825137 0.375000 Si
0.231244 0.825137 0.875000 Si
0.406107 0.231244 0.125000 Si
0.406107 0.231244 0.625000 Si
0.825137 0.593893 0.125000 Si
0.825137 0.593893 0.625000 Si
0.174863 0.406107 0.375000 Si
0.174863 0.406107 0.875000 Si
0.593893 0.768756 0.375000 Si
0.593893 0.768756 0.875000 Si
0.768756 0.174863 0.125000 Si
0.768756 0.174863 0.625000 Si
0.333333 0.666667 0.375000 N
0.333333 0.666667 0.875000 N
0.666667 0.333333 0.125000 N
0.666667 0.333333 0.625000 N
0.969321 0.670057 0.375000 N
0.969321 0.670057 0.875000 N
0.299264 0.969321 0.125000 N
0.299264 0.969321 0.625000 N
0.670057 0.700736 0.125000 N
0.670057 0.700736 0.625000 N
0.329943 0.299264 0.375000 N
0.329943 0.299264 0.875000 N
0.030679 0.329943 0.125000 N
0.030679 0.329943 0.625000 N
0.700736 0.030679 0.375000 N
0.700736 0.030679 0.875000 N
