O O
1.0
24 0 0 
0 16 0
0 0 16
O
2 
Cartesian
0.00 0.00 0.00 O
8.00 0.00 0.00 O
