N Si                                    
   1.00000000000000     
     8.8921880721999997    0.0000000000000000    0.0000000000000000
     0.0000000000000000    8.8921880721999997    0.0000000000000000
     0.0000000000000000    0.0000000000000000    8.8921880721999997
   N    Si
    64    32
Direct
  0.4539263876342379  0.1920520950246456  0.0460845289006581
  0.4566982953029378  0.1829511808125828  0.5410492623064195
  0.4610183726782824  0.7198492551790716  0.0452408599577296
  0.4452154503683375  0.7089827076777989  0.5336863498480483
  0.9748210067078165  0.1991960488913127  0.0605893982495689
  0.9495715975126681  0.1769427464639245  0.5634229583132467
  0.9700844982284259  0.6857293726940586  0.0474594846487095
  0.9376910548559251  0.6895086148360121  0.5341297645387202
  0.2955209438510751  0.4625846165941751  0.0429232731119718
  0.3129839600269900  0.4614650481588832  0.5399324174822285
  0.2969552949946567  0.9459624318463639  0.0595664142380119
  0.2803158363946552  0.9497272106573451  0.5469972827756353
  0.8151922242827709  0.4506474946553529  0.0313169453849439
  0.7784753310550442  0.4574948303792538  0.5576787267992644
  0.8079418567945706  0.9328978345011856  0.0548259543536043
  0.7997973214812910  0.9659798549915311  0.5472995568880603
  0.2079223645881050  0.1922195704349669  0.1979127726647142
  0.1827781161331546  0.2093057199440286  0.7003991732235940
  0.2068159105592740  0.7032233429899670  0.2090431857960298
  0.2105976376084956  0.7177242198835541  0.6868180695886335
  0.7200827837840075  0.1967133362669906  0.2149045433535791
  0.6980809413113539  0.2060383940458431  0.7285023842603013
  0.6897877738637520  0.6907304161808782  0.2004481830062612
  0.6979061265408817  0.7334042607619070  0.6869107821815563
  0.0597251690324763  0.4389773794530096  0.2190307711536553
  0.0556542353996233  0.4636072916501796  0.7187312481704176
  0.0410644989727996  0.9272231440959151  0.2127205041366409
  0.0491384369982285  0.9630605361357079  0.7200389901151495
  0.5447849976356971  0.4489662017992186  0.1803576920535028
  0.5322427782983035  0.4575559447979756  0.7020927401439792
  0.5493464260369343  0.9446507713709711  0.1889572605537104
  0.5552914245270183  0.9680407979349046  0.7055982949935228
  0.4489214188275475  0.0316701858174216  0.2787922011615000
  0.4493455470914196  0.0463382401865178  0.7952592169186961
  0.4519984893900931  0.5444413683200557  0.2779800895190406
  0.4423900664972209  0.5649298045256694  0.7788941662707828
  0.9529107917332758  0.0325565183126858  0.2934975216325773
  0.9630122402945732  0.0598676254352802  0.8240969808783672
  0.9540111784799054  0.5307501284234208  0.3151554132371033
  0.9513244090379301  0.5719645708776604  0.7910258953288279
  0.2963300187031319  0.2962283539554412  0.2941251399160038
  0.2839743701820668  0.3149440523257120  0.7937055643860629
  0.2823176908101798  0.8009783934233128  0.3065811109509692
  0.3011939422241331  0.8107228790343278  0.7878246855468385
  0.8129715272020114  0.2912032263142185  0.2934938556798156
  0.7896319505910289  0.3154262726326655  0.8073401035192376
  0.7755846223861063  0.7866878343066388  0.2925722204378324
  0.8054679045607580  0.7965322246677667  0.7839577738016758
  0.1998136705046770  0.0437860623590107  0.4540079082596579
  0.2006642577378973  0.0420965277252430  0.9686830542880478
  0.2062953568132557  0.5389148921701185  0.4577386578989028
  0.1983974721976439  0.5500478438623918  0.9549785687012400
  0.7060651653720635  0.0508859517067109  0.4559314659027613
  0.7255863123639231  0.0346896076988148  0.9711530514255781
  0.7001080703725178  0.5281279770987172  0.4424040496211302
  0.7092468919367533  0.5582062527725026  0.9500641806070004
  0.0681828025328223  0.2767903175483835  0.4582961952396833
  0.0443233665882743  0.2998555138483539  0.9618552299683063
  0.0387205404000782  0.7847518776042168  0.4457162136925253
  0.0656706218621759  0.7885854691654762  0.9580026460831120
  0.5500726766508997  0.2763046229494162  0.4480334646638243
  0.5620440108740989  0.2890264051713197  0.9593067820043260
  0.5413008875558131  0.8099372538237744  0.4382166702207195
  0.5597981435360548  0.7963478625773854  0.9453821122553094
  0.0116184585699585  0.9746780535869635  0.0105762683076934
  0.9931211432835471  0.9949689585786984  0.4890663055724179
  0.0134467692131656  0.4991992454730500  0.0134284602014341
  0.9985291875903807  0.4704979073595763  0.5173834954926120
  0.5155909457735438  0.9976182182679875  0.0022434677933879
  0.4681191398336785  0.0006549408182228  0.4643452623790189
  0.4981642271248433  0.5348985048409498  0.9912300276024635
  0.5042852286093021  0.5111992232444504  0.4710256891066055
  0.2459894929877039  0.2535317576169968  0.9874763012212348
  0.2771695706864942  0.2444653825889417  0.5008889846463620
  0.2556207072881935  0.7512874442139081  0.0179851326279962
  0.2348771716000469  0.7401960828832760  0.4987285392307089
  0.7661089851377034  0.2431736651567307  0.0204883738520980
  0.7480494521426128  0.2371731116328857  0.5035499414530162
  0.7824810362576009  0.7374912013283057  0.9975366602484111
  0.7400094458168184  0.7677378908223205  0.4984959243195425
  0.2456532216745144  0.9899072017589596  0.2535293905071319
  0.2337315516557744  0.0150256667644170  0.7720999676644319
  0.2569357120664722  0.5095300011243726  0.2492052829365631
  0.2544387669282536  0.5169499645950093  0.7428542371914917
  0.7528145049141466  0.0016235213942790  0.2553837042411161
  0.7659547772230286  0.0208564985683658  0.7758350529067407
  0.7453368273328654  0.4880315613710375  0.2332115043038955
  0.7257210172800842  0.5121614296204783  0.7421424026365280
  0.0303736928387377  0.2431124377382919  0.2526941167113660
  0.9729165083355998  0.2749948673251323  0.7612786712561733
  0.9634925456832263  0.7349873753718918  0.2483456094697153
  0.0033058929573236  0.7633135654895454  0.7237143446844994
  0.4944925718284497  0.2301171646995918  0.2415163330608014
  0.4797818732276949  0.2574751930706541  0.7783805079138667
  0.4867631387587796  0.7440013535114995  0.2479853032262138
  0.4976646811244991  0.7854988061819718  0.7330166732538115
 
  0.49377953E-02 -0.23580431E-02 -0.56302782E-02
  0.63716933E-02  0.51572736E-02 -0.69348704E-02
  0.41557778E-02  0.53428401E-02 -0.49830111E-02
  0.73184889E-02 -0.31826869E-02  0.90427427E-02
  0.89583868E-02 -0.70054468E-03  0.78604177E-02
  0.82013063E-02  0.96024918E-02 -0.91730505E-02
 -0.25172525E-02 -0.60143452E-02  0.56658466E-02
 -0.16339564E-02 -0.15373920E-02 -0.82463786E-03
  0.23432037E-01  0.77514470E-02 -0.48439988E-03
 -0.59446976E-02 -0.19688080E-01 -0.52134936E-02
 -0.44863020E-02  0.47532235E-02 -0.13043100E-03
 -0.84103689E-03 -0.16404186E-01 -0.59975583E-02
 -0.11070316E-02  0.84693552E-02 -0.83851553E-02
  0.92456859E-02  0.11880408E-01 -0.11259547E-01
 -0.41796643E-02 -0.15048604E-03  0.14777228E-01
  0.25648424E-02  0.26139968E-02 -0.14979885E-02
 -0.83621316E-02  0.18839259E-02  0.16048723E-01
  0.53437712E-02  0.51989709E-02  0.19501621E-01
 -0.32727224E-02 -0.20276356E-01 -0.11432649E-01
  0.42568349E-02  0.41182998E-02 -0.10429949E-01
 -0.45854973E-02 -0.11136666E-01  0.31985156E-02
  0.43964527E-02 -0.20966839E-02 -0.11984560E-01
  0.11401598E-01 -0.18081247E-01  0.94485246E-02
 -0.54333897E-02  0.16409221E-01  0.65322888E-02
 -0.13577981E-01 -0.38470764E-02 -0.34026416E-03
 -0.36187612E-02 -0.11135377E-01  0.80074171E-02
  0.22244245E-01  0.28965019E-03  0.78413385E-03
 -0.59422118E-02  0.37838723E-02 -0.24154448E-01
  0.33657181E-02 -0.46322268E-02 -0.98810962E-02
  0.24369949E-02  0.28502613E-02  0.45875756E-02
  0.78454098E-02 -0.24691866E-02 -0.38060489E-02
 -0.29437483E-02  0.14985749E-01  0.68346138E-02
  0.78405248E-02 -0.31868936E-02  0.88981339E-03
 -0.52560960E-02  0.71308042E-02 -0.10347241E-01
  0.29922029E-02 -0.28282556E-02 -0.99008052E-02
  0.35457602E-03  0.15492220E-01 -0.47569541E-02
  0.10429372E-01  0.11928966E-01 -0.48396891E-02
  0.40622732E-02 -0.61907054E-02 -0.57687237E-02
  0.33325224E-02  0.14254705E-01 -0.12414704E-01
 -0.43643584E-02 -0.10370868E-01 -0.99327093E-03
 -0.24408586E-02  0.52885110E-03  0.92280318E-02
  0.75428430E-02  0.33209482E-02  0.19842274E-02
 -0.10369534E-01 -0.31070025E-02 -0.86164493E-02
 -0.59737683E-02 -0.66756370E-02  0.18490987E-01
 -0.93757321E-02 -0.14601803E-01  0.30563090E-02
 -0.43121211E-02  0.15744518E-02 -0.17048438E-01
  0.74162725E-02  0.13153915E-01  0.19955817E-02
 -0.10017372E-01  0.92236977E-02  0.87910750E-02
 -0.15124128E-01 -0.32313879E-02 -0.39217932E-02
  0.55574279E-02 -0.73173272E-02 -0.10615941E-01
 -0.29540888E-02  0.42651368E-02 -0.18623115E-02
  0.32695960E-02  0.48042589E-02 -0.24880417E-02
 -0.96927157E-02 -0.16235182E-02  0.22578978E-02
 -0.11868499E-01  0.93052663E-02  0.36849021E-02
  0.31773105E-02  0.42017915E-02 -0.68418505E-02
 -0.74139691E-02  0.12669478E-01 -0.30838033E-02
 -0.92157383E-02  0.27685978E-01  0.28453752E-02
  0.13389769E-01  0.54308218E-02  0.11143768E-01
  0.43472288E-02  0.12139466E-01  0.14203083E-01
  0.22502279E-02 -0.55494667E-02  0.21449960E-01
  0.10391929E-01  0.14301600E-01  0.30361978E-02
 -0.70489661E-02  0.16005787E-01  0.13929171E-01
  0.44132923E-02 -0.13441604E-01  0.13364435E-01
 -0.16845438E-01  0.70758083E-02 -0.52127981E-02
  0.50848347E-02  0.16843787E-02  0.77700226E-02
  0.14174566E-02 -0.75382213E-02  0.33598108E-02
  0.41101418E-02 -0.24472259E-02 -0.29350030E-02
 -0.30056643E-02 -0.39170137E-02 -0.85348717E-02
  0.70793512E-02 -0.38608440E-02 -0.30193678E-02
 -0.80806363E-03  0.82306694E-03  0.13578030E-01
  0.60129476E-02 -0.83035608E-02  0.16197701E-02
 -0.36364579E-03 -0.26029988E-02  0.25578749E-02
 -0.18282900E-02 -0.28576109E-02  0.15735816E-02
 -0.57613689E-02  0.24270778E-03 -0.23246933E-03
 -0.26683977E-02  0.66928620E-02 -0.12654105E-02
 -0.54285008E-02  0.25126207E-02 -0.43729466E-02
 -0.20369784E-02 -0.69970972E-02  0.33356426E-02
 -0.85775983E-02 -0.69152017E-02  0.55798512E-03
 -0.20138671E-02 -0.24561630E-02 -0.12460551E-01
 -0.31166384E-02 -0.40352520E-02 -0.35539631E-02
 -0.87816538E-02 -0.56136611E-02 -0.71567191E-02
  0.84080806E-02  0.64366470E-02  0.18056189E-02
 -0.27709195E-02 -0.18584691E-02  0.18705474E-02
 -0.47677680E-02  0.61704949E-02  0.10909316E-02
 -0.61054337E-02 -0.34726323E-02 -0.36783823E-02
 -0.80712293E-02 -0.10821270E-02  0.68750286E-03
 -0.35097846E-02 -0.55463615E-02  0.11464515E-01
 -0.13386596E-03 -0.16009038E-02  0.51563788E-02
  0.18002227E-02 -0.43003238E-02  0.10537070E-02
  0.35943284E-02  0.28842227E-02  0.59574167E-02
  0.52573984E-03 -0.11208748E-01  0.66022584E-02
 -0.37206491E-02 -0.27477062E-02 -0.82465915E-03
  0.87346370E-02  0.72298169E-02 -0.84334129E-02
  0.67028888E-02 -0.71795244E-02  0.26712833E-02
  0.20970080E-02  0.49656423E-02 -0.11012406E-01
  0.46795552E-02  0.81686845E-02 -0.59227756E-02
 
           1
   3.00000000000000     
  0.10000000E+01  0.00000000E+00  0.00000000E+00  0.00000000E+00
  0.45559228E+00  0.19125655E+00  0.44185015E-01
  0.45884794E+00  0.18469111E+00  0.53870961E+00
  0.46242043E+00  0.72165179E+00  0.43559718E-01
  0.44768452E+00  0.70790895E+00  0.53673714E+00
  0.97784334E+00  0.19895970E+00  0.63241305E-01
  0.95233851E+00  0.18018239E+00  0.56032820E+00
  0.96923524E+00  0.68370028E+00  0.49370998E-01
  0.93713980E+00  0.68898994E+00  0.53385155E+00
  0.30342632E+00  0.46519976E+00  0.42759849E-01
  0.31097837E+00  0.45482279E+00  0.53817352E+00
  0.29544173E+00  0.94756605E+00  0.59522410E-01
  0.28003209E+00  0.94419285E+00  0.54497386E+00
  0.81481874E+00  0.45350484E+00  0.28488005E-01
  0.78159459E+00  0.46150298E+00  0.55388004E+00
  0.80653174E+00  0.93284706E+00  0.59811418E-01
  0.80066263E+00  0.96686175E+00  0.54679417E+00
  0.20510119E+00  0.19285516E+00  0.20332721E+00
  0.18458097E+00  0.21105972E+00  0.70697853E+00
  0.20571178E+00  0.69638261E+00  0.20518610E+00
  0.21203379E+00  0.71911363E+00  0.68329927E+00
  0.71853575E+00  0.19295611E+00  0.21598364E+00
  0.69956419E+00  0.20533103E+00  0.72445910E+00
  0.69363439E+00  0.68463026E+00  0.20363588E+00
  0.69607304E+00  0.73894032E+00  0.68911461E+00
  0.55144301E-01  0.43767947E+00  0.21891597E+00
  0.54433357E-01  0.45985050E+00  0.72143275E+00
  0.48569146E-01  0.92732086E+00  0.21298505E+00
  0.47133685E-01  0.96433712E+00  0.71188989E+00
  0.54592051E+00  0.44740341E+00  0.17702406E+00
  0.53306496E+00  0.45851755E+00  0.70364047E+00
  0.55199327E+00  0.94381773E+00  0.18767320E+00
  0.55429828E+00  0.97309661E+00  0.70790412E+00
  0.45156661E+00  0.30595008E-01  0.27909240E+00
  0.44757227E+00  0.48743994E-01  0.79176832E+00
  0.45300798E+00  0.54348719E+00  0.27463981E+00
  0.44250969E+00  0.57015649E+00  0.77728929E+00
  0.95642940E+00  0.36581051E-01  0.29186473E+00
  0.96438275E+00  0.57779038E-01  0.82215076E+00
  0.95513549E+00  0.53555931E+00  0.31096701E+00
  0.94985198E+00  0.56846570E+00  0.79069079E+00
  0.29550653E+00  0.29640677E+00  0.29723845E+00
  0.28651914E+00  0.31606446E+00  0.79437499E+00
  0.27881927E+00  0.79993017E+00  0.30367414E+00
  0.29917854E+00  0.80847069E+00  0.79406308E+00
  0.80980839E+00  0.28627695E+00  0.29452498E+00
  0.78817715E+00  0.31595745E+00  0.80158839E+00
  0.77808669E+00  0.79112563E+00  0.29324548E+00
  0.80208830E+00  0.79964407E+00  0.78692366E+00
  0.19471117E+00  0.42695874E-01  0.45268479E+00
  0.20253919E+00  0.39627846E-01  0.96510150E+00
  0.20529872E+00  0.54035384E+00  0.45711036E+00
  0.19950055E+00  0.55166868E+00  0.95413917E+00
  0.70279509E+00  0.50338218E-01  0.45669322E+00
  0.72158218E+00  0.37828970E-01  0.97239624E+00
  0.70118001E+00  0.52954556E+00  0.44009578E+00
  0.70674561E+00  0.56248062E+00  0.94902378E+00
  0.65073645E-01  0.28613087E+00  0.45925615E+00
  0.48840737E-01  0.30168774E+00  0.96561486E+00
  0.40187186E-01  0.78884743E+00  0.45050798E+00
  0.66429792E-01  0.78671322E+00  0.96523932E+00
  0.55357865E+00  0.28112962E+00  0.44905780E+00
  0.55966587E+00  0.29442635E+00  0.96400613E+00
  0.54278982E+00  0.80540240E+00  0.44272549E+00
  0.55411492E+00  0.79873506E+00  0.94362345E+00
  0.13333954E-01  0.97524632E+00  0.13197678E-01
  0.99359936E+00  0.99242575E+00  0.49019982E+00
  0.14833427E-01  0.49837361E+00  0.12438264E-01
  0.99751515E+00  0.46917641E+00  0.51450405E+00
  0.51797934E+00  0.99631567E+00  0.12248092E-02
  0.46784652E+00  0.93262285E-03  0.46892615E+00
  0.50019284E+00  0.53209709E+00  0.99177650E+00
  0.50416254E+00  0.51032104E+00  0.47188865E+00
  0.24537267E+00  0.25256767E+00  0.98800719E+00
  0.27522583E+00  0.24454727E+00  0.50081056E+00
  0.25472046E+00  0.75354545E+00  0.17558215E-01
  0.23304573E+00  0.74104378E+00  0.49725322E+00
  0.76542176E+00  0.24081302E+00  0.21613736E-01
  0.74515559E+00  0.23484010E+00  0.50373819E+00
  0.78180161E+00  0.73666255E+00  0.99333278E+00
  0.73895797E+00  0.76637650E+00  0.49729691E+00
  0.24269051E+00  0.98801329E+00  0.25111489E+00
  0.23656823E+00  0.17197229E-01  0.77270914E+00
  0.25600087E+00  0.50890300E+00  0.24983636E+00
  0.25283024E+00  0.51903173E+00  0.74322229E+00
  0.75075469E+00  0.45194283E-03  0.25414271E+00
  0.76323175E+00  0.20491416E-01  0.77606700E+00
  0.74415271E+00  0.48616036E+00  0.23707934E+00
  0.72567585E+00  0.51162133E+00  0.74388203E+00
  0.30981043E-01  0.24166162E+00  0.25304961E+00
  0.97412914E+00  0.27596793E+00  0.76328855E+00
  0.96366992E+00  0.73120583E+00  0.25057304E+00
  0.20506398E-02  0.76238656E+00  0.72343613E+00
  0.49743942E+00  0.23255632E+00  0.23867111E+00
  0.48204326E+00  0.25505300E+00  0.77928173E+00
  0.48747062E+00  0.74567664E+00  0.24427000E+00
  0.49924345E+00  0.78825471E+00  0.73101848E+00
  0.14307888E-02 -0.12794029E-02 -0.18201518E-02
  0.22816075E-02  0.11099914E-02 -0.24234259E-02
  0.20414249E-02  0.25408098E-02 -0.15843716E-02
  0.19019182E-02 -0.11490506E-02  0.30406229E-02
  0.44113739E-02 -0.35949473E-04  0.26014119E-02
  0.25297582E-02  0.15238776E-02 -0.23982483E-02
 -0.28941990E-03 -0.29988682E-02  0.15809548E-02
 -0.98527615E-03 -0.11224427E-02 -0.10812541E-02
  0.71862233E-02  0.32619533E-02 -0.45715180E-03
 -0.19889442E-02 -0.57177010E-02 -0.22961074E-02
 -0.17445281E-02  0.12394348E-02  0.39701442E-03
 -0.13037467E-02 -0.50799380E-02 -0.22598544E-02
  0.65959669E-03  0.25609119E-02 -0.39343168E-02
  0.21811836E-02  0.52364604E-02 -0.33476593E-02
 -0.19037945E-02 -0.30905075E-03  0.47204083E-02
  0.88946571E-03  0.21823795E-02 -0.89184915E-03
 -0.33400657E-02  0.31853992E-03  0.52503309E-02
  0.70095431E-03  0.14976742E-02  0.60573640E-02
 -0.63510336E-03 -0.62888165E-02 -0.32855889E-02
  0.21548330E-02  0.19230763E-02 -0.48706205E-02
 -0.51288038E-03 -0.33157595E-02  0.23414423E-02
  0.15034280E-02 -0.73724862E-03 -0.30947988E-02
  0.34776581E-02 -0.61121562E-02  0.34608417E-02
 -0.14320707E-02  0.70042857E-02  0.15747614E-02
 -0.42405786E-02 -0.23463181E-02  0.43377565E-03
 -0.29450097E-03 -0.35416454E-02  0.35804939E-02
  0.71682022E-02 -0.42994429E-03  0.98084544E-03
 -0.17976989E-02  0.15232385E-02 -0.76420842E-02
  0.10551527E-02 -0.15258195E-02 -0.36824907E-02
  0.23258335E-03  0.11707864E-02  0.18045000E-02
  0.23987113E-02 -0.81154967E-03 -0.20531660E-02
 -0.81418450E-03  0.50378034E-02  0.25861268E-02
  0.27832719E-02 -0.19529488E-02  0.32780823E-03
 -0.16956863E-02  0.14708894E-02 -0.43767081E-02
  0.77562122E-03 -0.10007283E-02 -0.38854441E-02
 -0.38368635E-03  0.51403627E-02 -0.27375598E-02
  0.36659449E-02  0.36020662E-02 -0.19984908E-02
  0.19396145E-02 -0.14997295E-02 -0.12628493E-02
  0.12011707E-02  0.47820322E-02 -0.33277811E-02
 -0.17250777E-02 -0.27743094E-02 -0.60243691E-03
 -0.16851493E-02  0.60069103E-03  0.30759196E-02
  0.22328031E-02  0.18894570E-02  0.38343606E-03
 -0.45023092E-02 -0.48319353E-03 -0.27820100E-02
 -0.17750107E-02 -0.22241418E-02  0.59307010E-02
 -0.31230235E-02 -0.54898259E-02  0.83966197E-04
 -0.11819122E-02  0.88490210E-03 -0.56415015E-02
  0.16356916E-02  0.39608725E-02  0.66388696E-04
 -0.35480695E-02  0.19891835E-02  0.21892588E-02
 -0.46895412E-02 -0.15091323E-02 -0.62648715E-03
  0.16011098E-02 -0.25879028E-02 -0.32338442E-02
 -0.45475031E-03  0.94000917E-03  0.19343191E-03
  0.71348641E-03  0.10851298E-02 -0.50675977E-03
 -0.28313404E-02 -0.45386610E-03  0.15805848E-02
 -0.29292119E-02  0.22975094E-02  0.18235699E-02
  0.14688713E-02  0.35731725E-03 -0.20990495E-02
 -0.24997315E-02  0.49849984E-02 -0.69922909E-03
 -0.20224348E-02  0.87348140E-02  0.66875682E-03
  0.37552154E-02  0.17463653E-02  0.42404416E-02
  0.17487478E-02  0.38648594E-02  0.48976306E-02
  0.14043569E-02 -0.19437651E-02  0.72969338E-02
  0.34787559E-02  0.39931283E-02  0.14649796E-02
 -0.18454472E-02  0.52678872E-02  0.45995450E-02
  0.17309032E-02 -0.39735721E-02  0.42935686E-02
 -0.55954231E-02  0.16411713E-02 -0.17082507E-02
  0.18708667E-02  0.42882974E-04  0.25345897E-02
  0.23918555E-03 -0.25322872E-02  0.83918067E-03
  0.15176157E-02 -0.53896457E-03 -0.69653312E-03
 -0.10087281E-02 -0.18115101E-02 -0.24508849E-02
  0.26202011E-02 -0.11972305E-02 -0.55759929E-03
 -0.88369105E-03  0.60444531E-03  0.33844430E-02
  0.20049212E-02 -0.20467072E-02  0.58024692E-03
  0.18991498E-04 -0.52739193E-03  0.14992142E-03
 -0.68515858E-03 -0.10149878E-02  0.10059879E-03
 -0.10266198E-02 -0.86912210E-04 -0.96850868E-04
 -0.82760595E-03  0.22956599E-02  0.10444815E-03
 -0.21086485E-02  0.46239029E-03 -0.11411389E-02
 -0.58633684E-03 -0.24069420E-02  0.14238967E-02
 -0.28926863E-02 -0.27104201E-02  0.89725072E-04
  0.15144126E-03 -0.10843696E-02 -0.38959726E-02
 -0.12514588E-02 -0.11410041E-02 -0.10216554E-02
 -0.27330036E-02 -0.20104418E-02 -0.23198074E-02
  0.23387010E-02  0.25211364E-02  0.12455557E-02
 -0.50834202E-03 -0.20803562E-03  0.60265677E-03
 -0.14098472E-02  0.21554274E-02  0.28713562E-03
 -0.20506869E-02 -0.88468821E-03 -0.12085236E-02
 -0.23916457E-02  0.11534100E-03  0.73848315E-03
 -0.14553541E-02 -0.18345804E-02  0.33929200E-02
 -0.38486933E-03 -0.61561848E-03  0.15958178E-02
  0.14341809E-02 -0.14101652E-02  0.13761540E-03
  0.27754170E-03  0.15009463E-02  0.20482172E-02
 -0.74186349E-03 -0.37665218E-02  0.17419035E-02
 -0.10722515E-02 -0.52597400E-03 -0.64542612E-03
  0.28191881E-02  0.18987312E-02 -0.30308497E-02
  0.16140344E-02 -0.22323422E-02  0.14275396E-02
  0.31036697E-03  0.13680349E-02 -0.36123820E-02
  0.15322650E-02  0.33294177E-02 -0.22040544E-02
  0.00000000E+00  0.00000000E+00  0.00000000E+00
  0.00000000E+00  0.00000000E+00  0.00000000E+00
  0.00000000E+00  0.00000000E+00  0.00000000E+00
  0.00000000E+00  0.00000000E+00  0.00000000E+00
  0.00000000E+00  0.00000000E+00  0.00000000E+00
  0.00000000E+00  0.00000000E+00  0.00000000E+00
  0.00000000E+00  0.00000000E+00  0.00000000E+00
  0.00000000E+00  0.00000000E+00  0.00000000E+00
  0.00000000E+00  0.00000000E+00  0.00000000E+00
  0.00000000E+00  0.00000000E+00  0.00000000E+00
  0.00000000E+00  0.00000000E+00  0.00000000E+00
  0.00000000E+00  0.00000000E+00  0.00000000E+00
  0.00000000E+00  0.00000000E+00  0.00000000E+00
  0.00000000E+00  0.00000000E+00  0.00000000E+00
  0.00000000E+00  0.00000000E+00  0.00000000E+00
  0.00000000E+00  0.00000000E+00  0.00000000E+00
  0.00000000E+00  0.00000000E+00  0.00000000E+00
  0.00000000E+00  0.00000000E+00  0.00000000E+00
  0.00000000E+00  0.00000000E+00  0.00000000E+00
  0.00000000E+00  0.00000000E+00  0.00000000E+00
  0.00000000E+00  0.00000000E+00  0.00000000E+00
  0.00000000E+00  0.00000000E+00  0.00000000E+00
  0.00000000E+00  0.00000000E+00  0.00000000E+00
  0.00000000E+00  0.00000000E+00  0.00000000E+00
  0.00000000E+00  0.00000000E+00  0.00000000E+00
  0.00000000E+00  0.00000000E+00  0.00000000E+00
  0.00000000E+00  0.00000000E+00  0.00000000E+00
  0.00000000E+00  0.00000000E+00  0.00000000E+00
  0.00000000E+00  0.00000000E+00  0.00000000E+00
  0.00000000E+00  0.00000000E+00  0.00000000E+00
  0.00000000E+00  0.00000000E+00  0.00000000E+00
  0.00000000E+00  0.00000000E+00  0.00000000E+00
  0.00000000E+00  0.00000000E+00  0.00000000E+00
  0.00000000E+00  0.00000000E+00  0.00000000E+00
  0.00000000E+00  0.00000000E+00  0.00000000E+00
  0.00000000E+00  0.00000000E+00  0.00000000E+00
  0.00000000E+00  0.00000000E+00  0.00000000E+00
  0.00000000E+00  0.00000000E+00  0.00000000E+00
  0.00000000E+00  0.00000000E+00  0.00000000E+00
  0.00000000E+00  0.00000000E+00  0.00000000E+00
  0.00000000E+00  0.00000000E+00  0.00000000E+00
  0.00000000E+00  0.00000000E+00  0.00000000E+00
  0.00000000E+00  0.00000000E+00  0.00000000E+00
  0.00000000E+00  0.00000000E+00  0.00000000E+00
  0.00000000E+00  0.00000000E+00  0.00000000E+00
  0.00000000E+00  0.00000000E+00  0.00000000E+00
  0.00000000E+00  0.00000000E+00  0.00000000E+00
  0.00000000E+00  0.00000000E+00  0.00000000E+00
  0.00000000E+00  0.00000000E+00  0.00000000E+00
  0.00000000E+00  0.00000000E+00  0.00000000E+00
  0.00000000E+00  0.00000000E+00  0.00000000E+00
  0.00000000E+00  0.00000000E+00  0.00000000E+00
  0.00000000E+00  0.00000000E+00  0.00000000E+00
  0.00000000E+00  0.00000000E+00  0.00000000E+00
  0.00000000E+00  0.00000000E+00  0.00000000E+00
  0.00000000E+00  0.00000000E+00  0.00000000E+00
  0.00000000E+00  0.00000000E+00  0.00000000E+00
  0.00000000E+00  0.00000000E+00  0.00000000E+00
  0.00000000E+00  0.00000000E+00  0.00000000E+00
  0.00000000E+00  0.00000000E+00  0.00000000E+00
  0.00000000E+00  0.00000000E+00  0.00000000E+00
  0.00000000E+00  0.00000000E+00  0.00000000E+00
  0.00000000E+00  0.00000000E+00  0.00000000E+00
  0.00000000E+00  0.00000000E+00  0.00000000E+00
  0.00000000E+00  0.00000000E+00  0.00000000E+00
  0.00000000E+00  0.00000000E+00  0.00000000E+00
  0.00000000E+00  0.00000000E+00  0.00000000E+00
  0.00000000E+00  0.00000000E+00  0.00000000E+00
  0.00000000E+00  0.00000000E+00  0.00000000E+00
  0.00000000E+00  0.00000000E+00  0.00000000E+00
  0.00000000E+00  0.00000000E+00  0.00000000E+00
  0.00000000E+00  0.00000000E+00  0.00000000E+00
  0.00000000E+00  0.00000000E+00  0.00000000E+00
  0.00000000E+00  0.00000000E+00  0.00000000E+00
  0.00000000E+00  0.00000000E+00  0.00000000E+00
  0.00000000E+00  0.00000000E+00  0.00000000E+00
  0.00000000E+00  0.00000000E+00  0.00000000E+00
  0.00000000E+00  0.00000000E+00  0.00000000E+00
  0.00000000E+00  0.00000000E+00  0.00000000E+00
  0.00000000E+00  0.00000000E+00  0.00000000E+00
  0.00000000E+00  0.00000000E+00  0.00000000E+00
  0.00000000E+00  0.00000000E+00  0.00000000E+00
  0.00000000E+00  0.00000000E+00  0.00000000E+00
  0.00000000E+00  0.00000000E+00  0.00000000E+00
  0.00000000E+00  0.00000000E+00  0.00000000E+00
  0.00000000E+00  0.00000000E+00  0.00000000E+00
  0.00000000E+00  0.00000000E+00  0.00000000E+00
  0.00000000E+00  0.00000000E+00  0.00000000E+00
  0.00000000E+00  0.00000000E+00  0.00000000E+00
  0.00000000E+00  0.00000000E+00  0.00000000E+00
  0.00000000E+00  0.00000000E+00  0.00000000E+00
  0.00000000E+00  0.00000000E+00  0.00000000E+00
  0.00000000E+00  0.00000000E+00  0.00000000E+00
  0.00000000E+00  0.00000000E+00  0.00000000E+00
  0.00000000E+00  0.00000000E+00  0.00000000E+00
  0.00000000E+00  0.00000000E+00  0.00000000E+00
