Hf  O 
 1.0000000000000000
    15.0000000000000000    0.0000000000000000    0.0000000000000000
     0.0000000000000000   15.0000000000000000    0.0000000000000000
     0.0000000000000000    0.0000000000000000   15.0000000000000000
 Hf  O  
   1   2
Cartesian
  7.5000000000000000  7.5000000000000000  7.5000000000000000
  9.3230722723344677  8.8792039333779620  7.5000000000000000
  5.6769277276655332  8.8792039333779620  7.5000000000000000
