Hf  O 
 1.0000000000000000
    15.0000000000000000    0.0000000000000000    0.0000000000000000
     0.0000000000000000   15.0000000000000000    0.0000000000000000
     0.0000000000000000    0.0000000000000000   15.0000000000000000
 Hf  O  
   1   2
Cartesian
  7.5000000000000000  7.5000000000000000  7.5000000000000000
  8.5255778399921809  8.2758776283132374  7.5000000000000000
  6.4744221600078191  8.2758776283132374  7.5000000000000000
