Hf  O 
 1.0000000000000000
    15.0000000000000000    0.0000000000000000    0.0000000000000000
     0.0000000000000000   15.0000000000000000    0.0000000000000000
     0.0000000000000000    0.0000000000000000   15.0000000000000000
 Hf  O  
   1   2
Cartesian
  7.5000000000000000  7.5000000000000000  7.5000000000000000
 11.6358061261270969 10.6288502180656668  7.5000000000000000
  3.3641938738729023 10.6288502180656668  7.5000000000000000
