Hf  O 
 1.0000000000000000
    15.0000000000000000    0.0000000000000000    0.0000000000000000
     0.0000000000000000   15.0000000000000000    0.0000000000000000
     0.0000000000000000    0.0000000000000000   15.0000000000000000
 Hf  O  
   1   2
Cartesian
  7.5000000000000000  7.5000000000000000  7.5000000000000000
  9.9610678182082957  9.3618649774297431  7.5000000000000000
  5.0389321817917043  9.3618649774297431  7.5000000000000000
