Hf  O 
 1.0000000000000000
    15.0000000000000000    0.0000000000000000    0.0000000000000000
     0.0000000000000000   15.0000000000000000    0.0000000000000000
     0.0000000000000000    0.0000000000000000   15.0000000000000000
 Hf  O  
   1   2
Cartesian
  7.5000000000000000  7.5000000000000000  7.5000000000000000
 11.8750544558297833 10.8098481095850829  7.5000000000000000
  3.1249455441702167 10.8098481095850829  7.5000000000000000
