Si  N                                   
   1.00000000000000     
    10.5306870012000005    0.0000000000000000    0.0000000000000000
     0.0000000000000000   10.5306870012000005    0.0000000000000000
     0.0000000000000000    0.0000000000000000   10.5306870012000005
   Si   N 
    45    60
Direct
  0.8994837114582022  0.8444681951263399  0.5945661812210645
  0.1658673852809568  0.1946719683310656  0.5003061917708733
  0.9828847610040219  0.4436228245542941  0.8574591106673596
  0.4136358108328234  0.4795509173787973  0.9010660816244235
  0.2136710863001688  0.9809379728481958  0.9397818610463112
  0.2633491861293923  0.7180553810903707  0.5325529268577063
  0.5188051638088373  0.8630065235280460  0.2868117291978456
  0.7765357702923739  0.2838506055746413  0.7250792682730388
  0.7204042579670017  0.7232178396303353  0.6347941314479001
  0.2298170523500748  0.2038574031534120  0.2395611592297663
  0.6420992179826021  0.3297046819621671  0.9829219036453124
  0.6622818334865173  0.1105387156857017  0.9296684339797143
  0.8023706750558162  0.7207809330181854  0.0819098391674387
  0.7632545337637451  0.9969322050484686  0.1516496569280653
  0.1658225302430342  0.4781251951966696  0.3991931989228649
  0.1339421005659211  0.2662911345077578  0.9832192992603722
  0.1895621545744289  0.6971322542510874  0.8189404601968177
  0.9132339013779965  0.3614327710521264  0.3893610221708773
  0.4644778592834889  0.4497585997018597  0.3166532051586544
  0.9004226003503024  0.0853597860410557  0.5357163426119252
  0.6682431375776973  0.0264088349097050  0.6505353936162263
  0.7198963178530720  0.4595954898423740  0.2214416599645215
  0.5197612875787604  0.6491964454550410  0.1255434090150839
  0.0226041178853526  0.3364086600743234  0.6133981979835246
  0.6831798314948332  0.4802381530343612  0.5013571313473784
  0.5175667665700229  0.1810847243138906  0.2213416631629523
  0.0017036017823608  0.5332496297115119  0.2055798093449603
  0.0615066564579172  0.7422334161085405  0.0467397915206156
  0.3933212936789149  0.5175886773224695  0.5707029479463881
  0.0516580843450733  0.7660156594229846  0.3327492119660789
  0.2425651729309091  0.5030808521305302  0.1409100896193528
  0.9197134457152825  0.6774770087000763  0.8462372617081966
  0.2793471767342731  0.3229119124703377  0.7486949658942982
  0.0541792084838893  0.0174882782385952  0.1638537418627162
  0.6637521352840673  0.0175471353026346  0.3998061386677457
  0.4518457960254638  0.7265615218988487  0.7036016590764635
  0.5239656364416294  0.3021172027106212  0.5301854890266188
  0.8935435660499522  0.2642735275483544  0.1142928425220813
  0.7675394283593573  0.7754828077401751  0.3633457043115332
  0.4173076571078749  0.9919321365937520  0.5217458075073680
  0.3943074425075874  0.1698660028263830  0.9995282031850256
  0.2334654948702015  0.9691424663087350  0.3739651719440067
  0.1584055233216778  0.9447025561765505  0.6419334261614792
  0.4170023795076184  0.9939082807595605  0.8052440843200258
  0.6836453614235664  0.5975647061445193  0.8840094847535517
  0.5535831417663843  0.0799028671524842  0.5185234372642030
  0.3720496194790727  0.2830232736491752  0.8692244619643359
  0.3617027485513727  0.5432198382313367  0.0461260483602808
  0.6096298953138429  0.6882609709333722  0.7593891711902244
  0.1828998862035127  0.7743069472803514  0.6646282916336044
  0.6226464569837513  0.0429724279007358  0.2433538049936664
  0.8285050001742638  0.5366804893637225  0.8651480325878019
  0.7840438155248779  0.8286671741709335  0.2019518401000373
  0.9976626770176960  0.1995108610177302  0.4813448192802620
  0.4021371672940847  0.9490727530626766  0.3746193587693279
  0.2986004999271979  0.4953572553751950  0.2899939170025462
  0.9203194156814422  0.7393649095708220  0.9828398507809071
  0.9045067743313217  0.0990032845926895  0.1599334492218462
  0.4499883798529577  0.7794885805490334  0.1783172934429142
  0.6208289256825716  0.8439686456641444  0.4066910415441540
  0.7500146907973804  0.3450382060968099  0.1076870440060295
  0.0040153934203495  0.9632989317391649  0.6141886474426093
  0.3707628629906629  0.0036736178518517  0.9671277515021549
  0.7161041595443906  0.6356507111232044  0.4922331539713797
  0.2455131963536785  0.5509779751310099  0.5233797934029945
  0.1768120820201508  0.8084897843707470  0.9284334903389374
  0.4212773325653504  0.8943920435926220  0.6708679810640694
  0.0643158020800652  0.6003871548330438  0.8237172305798347
  0.4035220291399533  0.3547340138943719  0.6298793130680893
  0.1265271915365885  0.0765948670602295  0.0332659587543953
  0.1961530304882897  0.3355358909641759  0.1331605037625664
  0.6815665737303624  0.3639298882293163  0.5972278838398449
  0.9071096558139069  0.7984991739894522  0.4211940113290375
  0.7156025594536081  0.9841720332278324  0.9946547382097942
  0.7803773888708271  0.1367468852203984  0.6513465063150983
  0.4210938236154649  0.6838875696689500  0.5605607654850310
  0.0343926346111945  0.4496932366792032  0.5000679193040319
  0.0973794828512104  0.5846846395991480  0.0820183694791933
  0.2237487878129268  0.2932330987552781  0.3861587714314332
  0.2279512089879197  0.0217299345973604  0.7752958668709433
  0.2438081715470948  0.0416029573101893  0.5302473488940105
  0.7667489161666403  0.4300676292778042  0.3706866275625808
  0.8204954317907246  0.0470400653361692  0.4049870687740666
  0.5106333870350294  0.4755151916535732  0.4628070521560433
  0.5779863805774550  0.4567145969061442  0.8842344301761453
  0.1404396567518749  0.3667128036787610  0.8518465902764319
  0.7441568722039624  0.8875632971099018  0.6181079271698684
  0.3529410190270888  0.6370272677414642  0.8077868419953788
  0.6494673326554709  0.6781504546730549  0.0148615094784841
  0.9650179411384825  0.3008598408004076  0.9768057244326894
  0.5068640047540838  0.2912829003058060  0.3466399809532508
  0.9189344262982895  0.3405786864104231  0.7216748854317487
  0.1662133357973875  0.2817324435192073  0.6414557489088212
  0.5441184507170840  0.2098431751937091  0.0562152552208838
  0.8276995483067914  0.5863031967656506  0.1767134492017590
  0.8979932356945241  0.7247441792004462  0.6972030272300520
  0.1926212905047403  0.8156152082684259  0.3979413776224066
  0.1611526347560027  0.0557750235079433  0.2662128094697575
  0.5768263039752217  0.5317636413004568  0.2171280403210919
  0.3679787770457121  0.1755431362202569  0.1686526734864522
  0.5760861088048744  0.0621675654753990  0.7950220661238931
  0.9549221077056214  0.3579566896104844  0.2272447901538217
  0.0681490670416112  0.6056943547246957  0.3468425046468357
  0.0724445486027442  0.8518529425891292  0.1829431984217222
  0.7226035203777517  0.2465568617758275  0.8697523739427904
 
 -0.21050140E-02 -0.47661762E-02  0.88960562E-03
 -0.66946252E-03  0.12287772E-01  0.13982904E-01
 -0.48087523E-02  0.97078552E-02  0.29437156E-02
  0.36837225E-02  0.75337090E-02 -0.11147773E-03
 -0.71081892E-02 -0.30471332E-03  0.23226007E-02
  0.14060892E-01  0.69696400E-02 -0.38626802E-02
  0.42346272E-02 -0.70113421E-02  0.78290505E-02
  0.18612201E-03 -0.32446354E-02  0.31800492E-02
 -0.18125548E-02 -0.92514914E-02 -0.78950305E-02
 -0.91880858E-02 -0.15819354E-01  0.57287569E-02
 -0.91361305E-02 -0.41861769E-02  0.15260162E-02
  0.27379799E-02  0.41277698E-02  0.26652534E-02
  0.25668497E-02 -0.49538269E-02 -0.72349184E-03
  0.26083048E-02  0.10525617E-02 -0.29973845E-02
  0.53446812E-02  0.16276585E-02  0.18612607E-02
  0.87674302E-02  0.17167879E-02  0.23481559E-02
 -0.94091575E-03  0.60701646E-02  0.28214377E-02
 -0.58147502E-02  0.89017347E-02 -0.37683877E-02
 -0.31857280E-02  0.77159950E-02 -0.15043140E-02
  0.45280169E-02 -0.62715453E-02 -0.11988110E-02
 -0.74397750E-03 -0.42707025E-02 -0.75878524E-02
 -0.61547967E-02 -0.80309379E-02 -0.82436586E-02
  0.64726546E-02  0.13024320E-01  0.76839836E-02
 -0.60061682E-03  0.22607734E-02 -0.37844026E-02
 -0.23039468E-02 -0.26746408E-02 -0.21771464E-02
 -0.86798538E-02 -0.23197661E-03  0.78680270E-02
  0.26243613E-02  0.34000343E-02  0.11038653E-01
 -0.25326840E-02 -0.24798155E-02 -0.28745698E-02
  0.69113453E-02 -0.61321910E-03  0.12196409E-02
  0.22359420E-02  0.86171570E-02 -0.20580966E-02
 -0.10027859E-01  0.27868546E-02  0.10232270E-01
  0.94102477E-03  0.47140248E-02 -0.32589023E-02
 -0.75754880E-04  0.12939500E-01 -0.65796261E-02
 -0.15538952E-02 -0.99279733E-02  0.10822328E-04
  0.75319901E-02 -0.42977662E-02 -0.39262669E-02
 -0.24809211E-02  0.81348775E-02  0.39125310E-02
 -0.10686652E-02 -0.49746006E-02 -0.10856905E-02
  0.23301330E-02 -0.11378509E-01 -0.84521060E-02
 -0.90321141E-03 -0.49826175E-02 -0.11773633E-01
 -0.83572987E-02  0.11530767E-01 -0.14995241E-02
 -0.90927666E-02 -0.96553790E-02 -0.42124999E-02
 -0.13158766E-03  0.10188035E-01  0.55402469E-02
  0.14915253E-02 -0.99850270E-02 -0.24977545E-02
  0.28778063E-02 -0.61512019E-02  0.58496757E-02
  0.55922514E-02  0.78677019E-02 -0.12799994E-02
  0.36246081E-02 -0.21417957E-02 -0.96272157E-02
  0.72774310E-02 -0.20004495E-01 -0.39695218E-02
 -0.61285677E-02  0.37897985E-03 -0.11217658E-01
  0.43655200E-02  0.17864637E-01  0.72675375E-03
  0.37046076E-02 -0.28999338E-02 -0.84786803E-02
  0.47854737E-03  0.14341063E-02 -0.96476688E-03
  0.11597995E-01  0.21017546E-02 -0.58489831E-02
  0.28254298E-02  0.22905007E-02 -0.60099708E-02
  0.12896088E-01 -0.44510626E-02 -0.48298917E-02
 -0.40465404E-02  0.26269786E-02 -0.80692433E-02
 -0.14545256E-02  0.15043675E-02  0.48060638E-02
 -0.38759705E-02  0.15201116E-02  0.83911641E-02
  0.32433074E-02 -0.87701204E-02 -0.14344904E-02
 -0.50333701E-02  0.98295244E-02 -0.22483552E-02
  0.53026470E-02 -0.10515274E-01  0.85509506E-02
 -0.34784599E-02 -0.22887328E-02 -0.12550104E-01
 -0.11218800E-01 -0.88342624E-02 -0.29047421E-02
  0.22840705E-02 -0.12767814E-01  0.10053241E-01
  0.13782027E-03 -0.55796222E-02  0.16462899E-02
  0.17659540E-01  0.66537796E-02 -0.74164097E-02
 -0.10240223E-01  0.54491088E-02  0.63522727E-02
 -0.16122676E-01  0.78012384E-02 -0.60580078E-02
 -0.10715431E-01  0.37705097E-02  0.31196505E-02
  0.61205344E-02 -0.82072473E-02 -0.85297224E-02
  0.71281221E-02 -0.39042632E-02  0.11494084E-01
 -0.10630514E-01 -0.23415438E-02  0.10459653E-01
  0.11176495E-01 -0.17065340E-01  0.50328232E-02
  0.72837180E-02  0.11370067E-02  0.12560386E-02
 -0.43618668E-02 -0.94551619E-02  0.11721805E-01
 -0.14125548E-02  0.39360345E-02 -0.15810128E-01
  0.13114565E-01 -0.13786702E-02 -0.97276740E-02
 -0.44089826E-02 -0.27048657E-02  0.92236433E-02
 -0.10978505E-01 -0.41440339E-02  0.25624753E-02
  0.33190890E-02 -0.15328164E-01 -0.18728040E-03
 -0.10862730E-01  0.24536755E-02  0.50600551E-02
 -0.19396189E-02  0.11940179E-01  0.12451398E-02
 -0.33641372E-03  0.89821082E-02 -0.18861601E-02
 -0.32914978E-02 -0.75241010E-02 -0.10734543E-01
  0.35298708E-02  0.48236679E-02  0.10893140E-01
  0.50923257E-02 -0.25396697E-02 -0.16610382E-01
 -0.82747058E-03  0.87225584E-02  0.80572504E-03
  0.50605587E-02 -0.58306751E-02 -0.21678873E-02
  0.25805700E-02  0.14292106E-01  0.75606226E-02
  0.29831308E-02  0.91988447E-02  0.42404967E-02
  0.40611278E-02 -0.19030824E-01 -0.14235427E-01
 -0.30080596E-02 -0.71535135E-03 -0.19439220E-02
 -0.96240613E-02 -0.10758918E-01  0.18064034E-01
  0.56167776E-02  0.20767671E-01  0.13097604E-03
 -0.33064947E-02  0.96898898E-02  0.59998885E-02
 -0.63569528E-03 -0.64077757E-02 -0.33456265E-02
  0.67501547E-02 -0.52031604E-03 -0.39605310E-02
  0.11074236E-01  0.83682644E-02 -0.69289483E-02
  0.15325041E-01 -0.85973208E-02  0.60395633E-03
 -0.68654101E-02  0.61214921E-02  0.51007841E-02
 -0.46521788E-02 -0.87042176E-04 -0.14120699E-03
 -0.21167051E-02 -0.48450781E-02 -0.41082574E-02
 -0.73011153E-02  0.53469874E-02  0.97980843E-02
 -0.48547331E-02  0.31250325E-02  0.93200327E-02
  0.66796175E-02 -0.89483902E-02 -0.88480716E-02
 -0.49952028E-02  0.92762479E-03  0.10323239E-01
 
           1
   3.00000000000000     
  0.10000000E+01  0.00000000E+00  0.00000000E+00  0.00000000E+00
  0.89888403E+00  0.84311040E+00  0.59481961E+00
  0.16567667E+00  0.19817253E+00  0.50428967E+00
  0.98151484E+00  0.44638841E+00  0.85829772E+00
  0.41468524E+00  0.48169713E+00  0.90103432E+00
  0.21164609E+00  0.98085117E+00  0.94044353E+00
  0.26735488E+00  0.72004090E+00  0.53145252E+00
  0.52001153E+00  0.86100912E+00  0.28904208E+00
  0.77658879E+00  0.28292627E+00  0.72598521E+00
  0.71988789E+00  0.72058226E+00  0.63254498E+00
  0.22719953E+00  0.19935076E+00  0.24119318E+00
  0.63949650E+00  0.32851212E+00  0.98335664E+00
  0.66306183E+00  0.11171464E+00  0.93042772E+00
  0.80310192E+00  0.71936968E+00  0.81703730E-01
  0.76399759E+00  0.99723206E+00  0.15079576E+00
  0.16734513E+00  0.47858889E+00  0.39972344E+00
  0.13643978E+00  0.26678022E+00  0.98388825E+00
  0.18929410E+00  0.69886153E+00  0.81974424E+00
  0.91157739E+00  0.36396871E+00  0.38828748E+00
  0.46357030E+00  0.45195675E+00  0.31622465E+00
  0.90171255E+00  0.83573138E-01  0.53537482E+00
  0.66803119E+00  0.25192190E-01  0.64837375E+00
  0.71814293E+00  0.45730762E+00  0.21909319E+00
  0.52160523E+00  0.65290684E+00  0.12773244E+00
  0.22433013E-01  0.33705271E+00  0.61232009E+00
  0.68252348E+00  0.47947620E+00  0.50073690E+00
  0.51509404E+00  0.18101864E+00  0.22358312E+00
  0.24512343E-02  0.53421824E+00  0.20872452E+00
  0.60785141E-01  0.74152696E+00  0.45920879E-01
  0.39529021E+00  0.51741398E+00  0.57105040E+00
  0.52295063E-01  0.76847053E+00  0.33216290E+00
  0.23970842E+00  0.50387478E+00  0.14382508E+00
  0.91998153E+00  0.67881995E+00  0.84530886E+00
  0.27932560E+00  0.32659814E+00  0.74682055E+00
  0.53736532E-01  0.14659980E-01  0.16385682E+00
  0.66589786E+00  0.16322780E-01  0.39868762E+00
  0.45113903E+00  0.72887900E+00  0.70471627E+00
  0.52366119E+00  0.30070003E+00  0.52987620E+00
  0.89420738E+00  0.26103200E+00  0.11188499E+00
  0.76728212E+00  0.77406335E+00  0.35999161E+00
  0.41492682E+00  0.99521704E+00  0.52131862E+00
  0.39171708E+00  0.16711536E+00  0.99832814E+00
  0.23342801E+00  0.97204485E+00  0.37554349E+00
  0.15883043E+00  0.94185800E+00  0.64122186E+00
  0.41782221E+00  0.99215592E+00  0.80691055E+00
  0.68523849E+00  0.59980607E+00  0.88364484E+00
  0.55461573E+00  0.79292709E-01  0.51578082E+00
  0.37412283E+00  0.27732436E+00  0.86809362E+00
  0.35995683E+00  0.54332780E+00  0.42930343E-01
  0.61087355E+00  0.69335028E+00  0.75959621E+00
  0.18395526E+00  0.77348081E+00  0.66221287E+00
  0.62278279E+00  0.43380979E-01  0.24307896E+00
  0.83180906E+00  0.53727924E+00  0.86348176E+00
  0.78484873E+00  0.82931970E+00  0.20023971E+00
  0.13365366E-02  0.19824283E+00  0.47996887E+00
  0.40098438E+00  0.94982113E+00  0.37232058E+00
  0.29818613E+00  0.49578582E+00  0.29136308E+00
  0.91921522E+00  0.73979796E+00  0.98523034E+00
  0.90543073E+00  0.96504838E-01  0.15952479E+00
  0.44855446E+00  0.78228883E+00  0.17767678E+00
  0.62233955E+00  0.84097304E+00  0.40912705E+00
  0.74902374E+00  0.34438619E+00  0.10411175E+00
  0.81936269E-03  0.96078221E+00  0.61336114E+00
  0.37141355E+00  0.36301379E-04  0.96999174E+00
  0.71614342E+00  0.63406118E+00  0.49270215E+00
  0.25054408E+00  0.55287352E+00  0.52126699E+00
  0.17389483E+00  0.81004214E+00  0.93024314E+00
  0.41668428E+00  0.89661447E+00  0.66914217E+00
  0.61263172E-01  0.60146130E+00  0.82460596E+00
  0.40526566E+00  0.35239592E+00  0.62744935E+00
  0.12855786E+00  0.75482614E-01  0.36540413E-01
  0.19312459E+00  0.33486883E+00  0.13614027E+00
  0.68475055E+00  0.35906829E+00  0.59866164E+00
  0.90918465E+00  0.79882309E+00  0.42155183E+00
  0.71435994E+00  0.98147843E+00  0.99799407E+00
  0.77997498E+00  0.13786819E+00  0.64684249E+00
  0.42482992E+00  0.68349481E+00  0.55778953E+00
  0.33136596E-01  0.44892267E+00  0.50269557E+00
  0.94251908E-01  0.58350408E+00  0.82748372E-01
  0.22469434E+00  0.28886639E+00  0.38610542E+00
  0.22485662E+00  0.22428942E-01  0.77673738E+00
  0.24325561E+00  0.45004496E-01  0.53060207E+00
  0.76665308E+00  0.43262647E+00  0.37014930E+00
  0.81955774E+00  0.44896587E-01  0.40192899E+00
  0.51163898E+00  0.47688937E+00  0.46591031E+00
  0.57943709E+00  0.45599109E+00  0.87950244E+00
  0.14020393E+00  0.36919770E+00  0.85207613E+00
  0.74559853E+00  0.88590224E+00  0.61749034E+00
  0.35367618E+00  0.64109883E+00  0.80994072E+00
  0.65031717E+00  0.68077104E+00  0.16069549E-01
  0.96617488E+00  0.29543831E+00  0.97275031E+00
  0.50600706E+00  0.29107911E+00  0.34608619E+00
  0.91619271E+00  0.33751367E+00  0.72682100E+00
  0.16781345E+00  0.28764877E+00  0.64149306E+00
  0.54317649E+00  0.21260365E+00  0.57924514E-01
  0.82751845E+00  0.58447774E+00  0.17576034E+00
  0.89991623E+00  0.72459595E+00  0.69607474E+00
  0.19577614E+00  0.81799917E+00  0.39596745E+00
  0.16551846E+00  0.53325804E-01  0.26638487E+00
  0.57487047E+00  0.53350754E+00  0.21858116E+00
  0.36665346E+00  0.17551834E+00  0.16861245E+00
  0.57548310E+00  0.60787291E-01  0.79385170E+00
  0.95284215E+00  0.35947995E+00  0.23003609E+00
  0.66766042E-01  0.60658462E+00  0.34949761E+00
  0.74347449E-01  0.84930371E+00  0.18042254E+00
  0.72118048E+00  0.24682113E+00  0.87269328E+00
 -0.91914544E-03 -0.13282446E-02  0.48664826E-03
 -0.28963120E-03  0.32289737E-02  0.39246204E-02
 -0.14524176E-02  0.30575083E-02  0.82172988E-03
  0.10819299E-02  0.18993251E-02 -0.16321868E-03
 -0.18539498E-02  0.18893774E-03  0.10388926E-02
  0.43156766E-02  0.21385715E-02 -0.10020804E-02
  0.14923491E-02 -0.21354560E-02  0.22891076E-02
  0.38515635E-03 -0.75564730E-03  0.12355848E-02
 -0.41756596E-03 -0.24495312E-02 -0.24103990E-02
 -0.26153790E-02 -0.51515376E-02  0.15212445E-02
 -0.26364348E-02 -0.14723331E-02  0.49773890E-03
  0.87709343E-03  0.14379333E-02  0.96260958E-03
  0.13223157E-02 -0.12104607E-02 -0.63556956E-03
  0.67786901E-03  0.41931680E-03 -0.66920829E-03
  0.12669596E-02  0.50458305E-03  0.25370828E-03
  0.28325655E-02  0.30139265E-03  0.47039812E-03
 -0.55093612E-03  0.18248712E-02  0.12152241E-02
 -0.19788514E-02  0.24905852E-02 -0.10621082E-02
 -0.61044103E-03  0.21643645E-02 -0.90979627E-04
  0.14606784E-02 -0.17744217E-02 -0.48665618E-03
  0.56222079E-04 -0.13476860E-02 -0.24605221E-02
 -0.21392056E-02 -0.25426652E-02 -0.20624558E-02
  0.19553235E-02  0.36573719E-02  0.25745840E-02
 -0.34782359E-03  0.62538859E-03 -0.76090957E-03
 -0.57584983E-03 -0.12466963E-02 -0.20820105E-03
 -0.25567145E-02  0.21014040E-04  0.21840464E-02
  0.13083226E-02  0.10106643E-02  0.31246335E-02
 -0.14033670E-02 -0.99671431E-03 -0.95382677E-03
  0.19878202E-02 -0.74563909E-04  0.47547285E-03
  0.70664911E-03  0.23858654E-02 -0.66105887E-03
 -0.28073852E-02  0.10241155E-02  0.31203589E-02
  0.11049159E-03  0.18126071E-02 -0.21796708E-03
  0.36883492E-03  0.36960225E-02 -0.17012233E-02
  0.63985757E-04 -0.26951312E-02  0.28016165E-03
  0.19297122E-02 -0.11590204E-02 -0.11981791E-02
 -0.91930745E-03  0.21554974E-02  0.68720535E-03
 -0.45223261E-03 -0.15465705E-02 -0.10089795E-03
  0.69269216E-03 -0.31483347E-02 -0.22854950E-02
  0.54507500E-04 -0.12151913E-02 -0.31802132E-02
 -0.24105687E-02  0.34248216E-02 -0.90752477E-03
 -0.25092082E-02 -0.27907154E-02 -0.13170725E-02
 -0.36409778E-03  0.32723865E-02  0.15930664E-02
  0.25186487E-03 -0.27071715E-02 -0.11995856E-02
  0.84366623E-03 -0.18861601E-02  0.18130500E-02
  0.21085836E-02  0.25645890E-02 -0.18544249E-03
  0.59654594E-03 -0.97289620E-03 -0.31859047E-02
  0.16730242E-02 -0.54496182E-02 -0.20466399E-02
 -0.26180718E-02  0.12238794E-03 -0.28375161E-02
  0.98272160E-03  0.50574319E-02  0.76312041E-03
  0.10732372E-02 -0.12858434E-02 -0.21833908E-02
  0.57545012E-03  0.15347497E-03 -0.24549638E-03
  0.29595137E-02  0.40689459E-03 -0.16146711E-02
  0.94551491E-03  0.12578348E-03 -0.16966934E-02
  0.36737101E-02 -0.18445241E-02 -0.16452679E-02
 -0.75965916E-03  0.78726343E-03 -0.17024357E-02
 -0.89730133E-03  0.18071186E-03  0.13247618E-02
 -0.83963700E-03 -0.51321511E-03  0.19695643E-02
  0.10587604E-02 -0.23592051E-02 -0.40960310E-03
 -0.15424388E-02  0.29632438E-02 -0.61756834E-03
  0.10713273E-02 -0.33968395E-02  0.25266200E-02
 -0.33924786E-03 -0.62149693E-03 -0.35943369E-02
 -0.27259691E-02 -0.30691599E-02 -0.50716966E-03
 -0.18495756E-04 -0.40345329E-02  0.29916765E-02
 -0.13544420E-03 -0.21769686E-02 -0.49865013E-05
  0.52057413E-02  0.18341938E-02 -0.21241860E-02
 -0.24264679E-02  0.10027006E-02  0.84698353E-03
 -0.49647359E-02  0.20707818E-02 -0.16995599E-02
 -0.26741334E-02  0.15617853E-02  0.65095255E-03
  0.19547501E-02 -0.26170086E-02 -0.27527592E-02
  0.18886822E-02 -0.15595734E-02  0.38644104E-02
 -0.27546178E-02 -0.29726783E-03  0.36931676E-02
  0.34378124E-02 -0.38150676E-02  0.41106808E-03
  0.10313170E-02  0.16767152E-03 -0.27377163E-03
 -0.15811939E-02 -0.26055023E-02  0.26713829E-02
 -0.10934890E-02  0.11770682E-02 -0.42891280E-02
  0.35247231E-02 -0.31889317E-03 -0.22919487E-02
 -0.21708422E-03 -0.13353323E-03  0.30032360E-02
 -0.33751786E-02 -0.90777689E-03  0.19489409E-03
  0.10027459E-02 -0.37950403E-02  0.19575131E-03
 -0.33217783E-02  0.77356401E-03  0.12210917E-02
 -0.61467942E-03  0.32309551E-02  0.74854816E-03
 -0.19229527E-03  0.30819237E-02 -0.86939983E-03
 -0.39814461E-03 -0.20585669E-02 -0.31543043E-02
  0.50792670E-03  0.12757229E-02  0.22560809E-02
  0.15571088E-02 -0.78466503E-03 -0.52446210E-02
 -0.92309986E-03  0.23744018E-02  0.18333958E-03
  0.17715007E-02 -0.15948425E-02 -0.68697803E-03
  0.65910011E-03  0.45097665E-02  0.21273159E-02
  0.72321647E-03  0.23919740E-02  0.74750766E-03
  0.75096184E-03 -0.56369094E-02 -0.39125249E-02
 -0.11508464E-02  0.36022798E-03 -0.44227541E-03
 -0.28125868E-02 -0.37111009E-02  0.44695129E-02
  0.11589754E-02  0.65988045E-02  0.28180815E-03
 -0.17999033E-02  0.25646809E-02  0.26463685E-02
 -0.83836412E-03 -0.16958541E-02 -0.11593956E-02
  0.27428028E-02 -0.17046309E-03 -0.83542441E-03
  0.30986885E-02  0.25867715E-02 -0.25938481E-02
  0.39952021E-02 -0.30738545E-02 -0.73015818E-03
 -0.14642939E-02  0.22632847E-02  0.10812018E-02
 -0.11980958E-02  0.37274026E-03  0.86721661E-04
 -0.70379642E-05 -0.94671901E-03 -0.81914506E-03
 -0.26509711E-02  0.82568488E-03  0.17752664E-02
 -0.10462153E-02  0.12002952E-02  0.37172144E-02
  0.23750840E-02 -0.19927038E-02 -0.22090107E-02
 -0.12863449E-02  0.38917005E-04  0.26044090E-02
  0.00000000E+00  0.00000000E+00  0.00000000E+00
  0.00000000E+00  0.00000000E+00  0.00000000E+00
  0.00000000E+00  0.00000000E+00  0.00000000E+00
  0.00000000E+00  0.00000000E+00  0.00000000E+00
  0.00000000E+00  0.00000000E+00  0.00000000E+00
  0.00000000E+00  0.00000000E+00  0.00000000E+00
  0.00000000E+00  0.00000000E+00  0.00000000E+00
  0.00000000E+00  0.00000000E+00  0.00000000E+00
  0.00000000E+00  0.00000000E+00  0.00000000E+00
  0.00000000E+00  0.00000000E+00  0.00000000E+00
  0.00000000E+00  0.00000000E+00  0.00000000E+00
  0.00000000E+00  0.00000000E+00  0.00000000E+00
  0.00000000E+00  0.00000000E+00  0.00000000E+00
  0.00000000E+00  0.00000000E+00  0.00000000E+00
  0.00000000E+00  0.00000000E+00  0.00000000E+00
  0.00000000E+00  0.00000000E+00  0.00000000E+00
  0.00000000E+00  0.00000000E+00  0.00000000E+00
  0.00000000E+00  0.00000000E+00  0.00000000E+00
  0.00000000E+00  0.00000000E+00  0.00000000E+00
  0.00000000E+00  0.00000000E+00  0.00000000E+00
  0.00000000E+00  0.00000000E+00  0.00000000E+00
  0.00000000E+00  0.00000000E+00  0.00000000E+00
  0.00000000E+00  0.00000000E+00  0.00000000E+00
  0.00000000E+00  0.00000000E+00  0.00000000E+00
  0.00000000E+00  0.00000000E+00  0.00000000E+00
  0.00000000E+00  0.00000000E+00  0.00000000E+00
  0.00000000E+00  0.00000000E+00  0.00000000E+00
  0.00000000E+00  0.00000000E+00  0.00000000E+00
  0.00000000E+00  0.00000000E+00  0.00000000E+00
  0.00000000E+00  0.00000000E+00  0.00000000E+00
  0.00000000E+00  0.00000000E+00  0.00000000E+00
  0.00000000E+00  0.00000000E+00  0.00000000E+00
  0.00000000E+00  0.00000000E+00  0.00000000E+00
  0.00000000E+00  0.00000000E+00  0.00000000E+00
  0.00000000E+00  0.00000000E+00  0.00000000E+00
  0.00000000E+00  0.00000000E+00  0.00000000E+00
  0.00000000E+00  0.00000000E+00  0.00000000E+00
  0.00000000E+00  0.00000000E+00  0.00000000E+00
  0.00000000E+00  0.00000000E+00  0.00000000E+00
  0.00000000E+00  0.00000000E+00  0.00000000E+00
  0.00000000E+00  0.00000000E+00  0.00000000E+00
  0.00000000E+00  0.00000000E+00  0.00000000E+00
  0.00000000E+00  0.00000000E+00  0.00000000E+00
  0.00000000E+00  0.00000000E+00  0.00000000E+00
  0.00000000E+00  0.00000000E+00  0.00000000E+00
  0.00000000E+00  0.00000000E+00  0.00000000E+00
  0.00000000E+00  0.00000000E+00  0.00000000E+00
  0.00000000E+00  0.00000000E+00  0.00000000E+00
  0.00000000E+00  0.00000000E+00  0.00000000E+00
  0.00000000E+00  0.00000000E+00  0.00000000E+00
  0.00000000E+00  0.00000000E+00  0.00000000E+00
  0.00000000E+00  0.00000000E+00  0.00000000E+00
  0.00000000E+00  0.00000000E+00  0.00000000E+00
  0.00000000E+00  0.00000000E+00  0.00000000E+00
  0.00000000E+00  0.00000000E+00  0.00000000E+00
  0.00000000E+00  0.00000000E+00  0.00000000E+00
  0.00000000E+00  0.00000000E+00  0.00000000E+00
  0.00000000E+00  0.00000000E+00  0.00000000E+00
  0.00000000E+00  0.00000000E+00  0.00000000E+00
  0.00000000E+00  0.00000000E+00  0.00000000E+00
  0.00000000E+00  0.00000000E+00  0.00000000E+00
  0.00000000E+00  0.00000000E+00  0.00000000E+00
  0.00000000E+00  0.00000000E+00  0.00000000E+00
  0.00000000E+00  0.00000000E+00  0.00000000E+00
  0.00000000E+00  0.00000000E+00  0.00000000E+00
  0.00000000E+00  0.00000000E+00  0.00000000E+00
  0.00000000E+00  0.00000000E+00  0.00000000E+00
  0.00000000E+00  0.00000000E+00  0.00000000E+00
  0.00000000E+00  0.00000000E+00  0.00000000E+00
  0.00000000E+00  0.00000000E+00  0.00000000E+00
  0.00000000E+00  0.00000000E+00  0.00000000E+00
  0.00000000E+00  0.00000000E+00  0.00000000E+00
  0.00000000E+00  0.00000000E+00  0.00000000E+00
  0.00000000E+00  0.00000000E+00  0.00000000E+00
  0.00000000E+00  0.00000000E+00  0.00000000E+00
  0.00000000E+00  0.00000000E+00  0.00000000E+00
  0.00000000E+00  0.00000000E+00  0.00000000E+00
  0.00000000E+00  0.00000000E+00  0.00000000E+00
  0.00000000E+00  0.00000000E+00  0.00000000E+00
  0.00000000E+00  0.00000000E+00  0.00000000E+00
  0.00000000E+00  0.00000000E+00  0.00000000E+00
  0.00000000E+00  0.00000000E+00  0.00000000E+00
  0.00000000E+00  0.00000000E+00  0.00000000E+00
  0.00000000E+00  0.00000000E+00  0.00000000E+00
  0.00000000E+00  0.00000000E+00  0.00000000E+00
  0.00000000E+00  0.00000000E+00  0.00000000E+00
  0.00000000E+00  0.00000000E+00  0.00000000E+00
  0.00000000E+00  0.00000000E+00  0.00000000E+00
  0.00000000E+00  0.00000000E+00  0.00000000E+00
  0.00000000E+00  0.00000000E+00  0.00000000E+00
  0.00000000E+00  0.00000000E+00  0.00000000E+00
  0.00000000E+00  0.00000000E+00  0.00000000E+00
  0.00000000E+00  0.00000000E+00  0.00000000E+00
  0.00000000E+00  0.00000000E+00  0.00000000E+00
  0.00000000E+00  0.00000000E+00  0.00000000E+00
  0.00000000E+00  0.00000000E+00  0.00000000E+00
  0.00000000E+00  0.00000000E+00  0.00000000E+00
  0.00000000E+00  0.00000000E+00  0.00000000E+00
  0.00000000E+00  0.00000000E+00  0.00000000E+00
  0.00000000E+00  0.00000000E+00  0.00000000E+00
  0.00000000E+00  0.00000000E+00  0.00000000E+00
  0.00000000E+00  0.00000000E+00  0.00000000E+00
  0.00000000E+00  0.00000000E+00  0.00000000E+00
  0.00000000E+00  0.00000000E+00  0.00000000E+00
  0.00000000E+00  0.00000000E+00  0.00000000E+00
