Hf32 O64 mp-1018721
1.0
       10.0635986328         0.0000000000         0.0000000000
        0.0000000000        10.0635986328         0.0000000000
        0.0000000000         0.0000000000        10.3437223434
   Hf    O
   32   64
Direct
     0.000000000         0.000000000         0.000000000
     0.250000000         0.000000000         0.250000000
     0.500000000         0.500000000         0.000000000
     0.750000000         0.500000000         0.250000000
     0.500000000         0.500000000         0.500000000
     0.750000000         0.500000000         0.750000000
     0.750000000         0.750000000         0.000000000
     0.250000000         0.250000000         0.000000000
     0.500000000         0.750000000         0.250000000
     0.000000000         0.250000000         0.250000000
     0.000000000         0.750000000         0.250000000
     0.500000000         0.250000000         0.250000000
     0.750000000         0.250000000         0.000000000
     0.250000000         0.750000000         0.000000000
     0.750000000         0.750000000         0.500000000
     0.250000000         0.250000000         0.500000000
     0.500000000         0.750000000         0.750000000
     0.000000000         0.250000000         0.750000000
     0.000000000         0.750000000         0.750000000
     0.500000000         0.250000000         0.750000000
     0.750000000         0.250000000         0.500000000
     0.250000000         0.750000000         0.500000000
     0.000000000         0.000000000         0.500000000
     0.250000000         0.000000000         0.750000000
     0.000000000         0.500000000         0.000000000
     0.750000000         0.000000000         0.250000000
     0.250000000         0.500000000         0.250000000
     0.500000000         0.000000000         0.000000000
     0.000000000         0.500000000         0.500000000
     0.750000000         0.000000000         0.750000000
     0.250000000         0.500000000         0.750000000
     0.500000000         0.000000000         0.500000000
     0.125000000         0.125000000         0.098603942
     0.875000000         0.875000000         0.098603942
     0.125000000         0.125000000         0.348603934
     0.375000000         0.875000000         0.348603934
     0.375000000         0.125000000         0.151396066
     0.125000000         0.875000000         0.151396066
     0.125000000         0.875000000         0.901396036
     0.875000000         0.125000000         0.901396036
     0.625000000         0.625000000         0.098603942
     0.375000000         0.375000000         0.098603942
     0.625000000         0.625000000         0.348603934
     0.875000000         0.375000000         0.348603934
     0.875000000         0.625000000         0.151396066
     0.625000000         0.375000000         0.151396066
     0.625000000         0.375000000         0.901396036
     0.375000000         0.625000000         0.901396036
     0.625000000         0.625000000         0.598603964
     0.375000000         0.375000000         0.598603964
     0.625000000         0.625000000         0.848603964
     0.875000000         0.375000000         0.848603964
     0.875000000         0.625000000         0.651396036
     0.625000000         0.375000000         0.651396036
     0.625000000         0.375000000         0.401396066
     0.375000000         0.625000000         0.401396066
     0.875000000         0.875000000         0.598603964
     0.125000000         0.125000000         0.598603964
     0.375000000         0.875000000         0.848603964
     0.125000000         0.125000000         0.848603964
     0.125000000         0.875000000         0.651396036
     0.375000000         0.125000000         0.651396036
     0.875000000         0.125000000         0.401396066
     0.125000000         0.875000000         0.401396066
     0.875000000         0.375000000         0.098603942
     0.125000000         0.625000000         0.098603942
     0.875000000         0.875000000         0.348603934
     0.625000000         0.125000000         0.348603934
     0.625000000         0.875000000         0.151396066
     0.875000000         0.125000000         0.151396066
     0.875000000         0.625000000         0.901396036
     0.125000000         0.375000000         0.901396036
     0.375000000         0.625000000         0.151396066
     0.125000000         0.375000000         0.151396066
     0.375000000         0.125000000         0.901396036
     0.625000000         0.875000000         0.901396036
     0.625000000         0.125000000         0.098603942
     0.375000000         0.875000000         0.098603942
     0.375000000         0.375000000         0.348603934
     0.125000000         0.625000000         0.348603934
     0.875000000         0.375000000         0.598603964
     0.125000000         0.625000000         0.598603964
     0.875000000         0.875000000         0.848603964
     0.625000000         0.125000000         0.848603964
     0.625000000         0.875000000         0.651396036
     0.875000000         0.125000000         0.651396036
     0.875000000         0.625000000         0.401396066
     0.125000000         0.375000000         0.401396066
     0.375000000         0.625000000         0.651396036
     0.125000000         0.375000000         0.651396036
     0.375000000         0.125000000         0.401396066
     0.625000000         0.875000000         0.401396066
     0.625000000         0.125000000         0.598603964
     0.375000000         0.875000000         0.598603964
     0.375000000         0.375000000         0.848603964
     0.125000000         0.625000000         0.848603964