Si12 N16
1.0
7.809186 0.000000 0.000000
-3.904594 6.762953 0.000000
0.000000 0.000000 5.659951
Si N
12 16
direct
0.512077 0.429649 0.660804 Si
0.570351 0.082428 0.660804 Si
0.917572 0.487923 0.660804 Si
0.429649 0.512077 0.160804 Si
0.082428 0.570351 0.160804 Si
0.487923 0.917572 0.160804 Si
0.167295 0.913861 0.452554 Si
0.086139 0.253434 0.452554 Si
0.746566 0.832705 0.452554 Si
0.913861 0.167295 0.952554 Si
0.253434 0.086139 0.952554 Si
0.832705 0.746566 0.952554 Si
0.610045 0.954564 0.433561 N
0.045436 0.655481 0.433561 N
0.344519 0.389955 0.433561 N
0.954564 0.610045 0.933561 N
0.655481 0.045436 0.933561 N
0.389955 0.344519 0.933561 N
0.318861 0.004342 0.698618 N
0.995658 0.314519 0.698618 N
0.685481 0.681139 0.698618 N
0.004342 0.318861 0.198618 N
0.314519 0.995658 0.198618 N
0.681139 0.685481 0.198618 N
0.666667 0.333333 0.605230 N
0.333333 0.666667 0.105230 N
0.000000 0.000000 0.453258 N
0.000000 0.000000 0.953258 N
