Hf O
1.0
       10.0306949615         0.0000000000         0.0000000000
        0.0000000000        10.0306949615         0.0000000000
        0.0000000000         0.0000000000        10.0306949615
   Hf    O
   32   56
Direct
     0.125000000         0.125000000         0.125000000
     0.625000000         0.125000000         0.125000000
     0.375000000         0.375000000         0.125000000
     0.875000000         0.375000000         0.125000000
     0.125000000         0.625000000         0.125000000
     0.625000000         0.625000000         0.125000000
     0.375000000         0.875000000         0.125000000
     0.875000000         0.875000000         0.125000000
     0.375000000         0.125000000         0.375000000
     0.875000000         0.125000000         0.375000000
     0.125000000         0.375000000         0.375000000
     0.625000000         0.375000000         0.375000000
     0.375000000         0.625000000         0.375000000
     0.875000000         0.625000000         0.375000000
     0.125000000         0.875000000         0.375000000
     0.625000000         0.875000000         0.375000000
     0.125000000         0.125000000         0.625000000
     0.625000000         0.125000000         0.625000000
     0.375000000         0.375000000         0.625000000
     0.875000000         0.375000000         0.625000000
     0.125000000         0.625000000         0.625000000
     0.625000000         0.625000000         0.625000000
     0.375000000         0.875000000         0.625000000
     0.875000000         0.875000000         0.625000000
     0.375000000         0.125000000         0.875000000
     0.875000000         0.125000000         0.875000000
     0.125000000         0.375000000         0.875000000
     0.625000000         0.375000000         0.875000000
     0.375000000         0.625000000         0.875000000
     0.875000000         0.625000000         0.875000000
     0.125000000         0.875000000         0.875000000
     0.625000000         0.875000000         0.875000000
     0.000000000         0.000000000         0.000000000
     0.252601683         0.000000000         0.000000000
     0.747398317         0.000000000         0.000000000
     0.500000000         0.247398317         0.000000000
     0.000000000         0.252601683         0.000000000
     0.247398317         0.500000000         0.000000000
     0.500000000         0.500000000         0.000000000
     0.752601683         0.500000000         0.000000000
     0.000000000         0.747398317         0.000000000
     0.500000000         0.752601683         0.000000000
     0.750000000         0.250000000         0.002601677
     0.250000000         0.750000000         0.002601677
     0.500000000         0.000000000         0.247398317
     0.000000000         0.500000000         0.247398317
     0.750000000         0.002601677         0.250000000
     0.250000000         0.250000000         0.250000000
     0.502601683         0.250000000         0.250000000
     0.997398317         0.250000000         0.250000000
     0.750000000         0.497398317         0.250000000
     0.250000000         0.502601683         0.250000000
     0.002601677         0.750000000         0.250000000
     0.497398317         0.750000000         0.250000000
     0.750000000         0.750000000         0.250000000
     0.250000000         0.997398317         0.250000000
     0.000000000         0.000000000         0.252601683
     0.500000000         0.500000000         0.252601683
     0.750000000         0.250000000         0.497398317
     0.250000000         0.750000000         0.497398317
     0.247398317         0.000000000         0.500000000
     0.500000000         0.000000000         0.500000000
     0.752601683         0.000000000         0.500000000
     0.000000000         0.247398317         0.500000000
     0.500000000         0.252601683         0.500000000
     0.000000000         0.500000000         0.500000000
     0.252601683         0.500000000         0.500000000
     0.747398317         0.500000000         0.500000000
     0.500000000         0.747398317         0.500000000
     0.000000000         0.752601683         0.500000000
     0.250000000         0.250000000         0.502601683
     0.750000000         0.750000000         0.502601683
     0.000000000         0.000000000         0.747398317
     0.500000000         0.500000000         0.747398317
     0.250000000         0.002601677         0.750000000
     0.002601677         0.250000000         0.750000000
     0.497398317         0.250000000         0.750000000
     0.750000000         0.250000000         0.750000000
     0.250000000         0.497398317         0.750000000
     0.750000000         0.502601683         0.750000000
     0.250000000         0.750000000         0.750000000
     0.502601683         0.750000000         0.750000000
     0.997398317         0.750000000         0.750000000
     0.750000000         0.997398317         0.750000000
     0.500000000         0.000000000         0.752601683
     0.000000000         0.500000000         0.752601683
     0.250000000         0.250000000         0.997398317
     0.750000000         0.750000000         0.997398317

