Si6 N8
1.0
        5.5065488815         0.0000000000         0.0000000000
        2.7532744408         4.7688112186         0.0000000000
        2.7532744408         1.5896037395         4.4960783345
   Si    N
    6    8
Direct
     0.125000000         0.125000000         0.625000000
     0.125000000         0.625000000         0.125000000
     0.625000000         0.125000000         0.125000000
     0.125000000         0.125000000         0.125000000
     0.750000000         0.750000000         0.750000000
     0.500000000         0.500000000         0.500000000
     0.367563009         0.367563009         0.367563009
     0.352688998         0.882436991         0.882436991
     0.882436991         0.882436991         0.352688998
     0.882436991         0.352688998         0.882436991
     0.367563009         0.367563009         0.897310972
     0.367563009         0.897310972         0.367563009
     0.882436991         0.882436991         0.882436991
     0.897310972         0.367563009         0.367563009
