Hf O
1.0
       10.8585758209         0.0000000000         0.0000000000
       -5.4292879105         9.4038025098         0.0000000000
        0.0000000000         0.0000000000        14.5693855286
   Hf    O
   48   72
Direct
     0.166666672         0.333333343         0.013363726
     0.166666672         0.833333373         0.013363726
     0.666666687         0.333333343         0.013363726
     0.666666687         0.833333373         0.013363726
     0.000000000         0.000000000         0.153302938
     0.000000000         0.500000000         0.153302938
     0.500000000         0.000000000         0.153302938
     0.500000000         0.500000000         0.153302938
     0.333333343         0.166666672         0.180030391
     0.333333343         0.666666687         0.180030391
     0.833333373         0.166666672         0.180030391
     0.833333373         0.666666687         0.180030391
     0.166666672         0.333333343         0.319969594
     0.166666672         0.833333373         0.319969594
     0.666666687         0.333333343         0.319969594
     0.666666687         0.833333373         0.319969594
     0.000000000         0.000000000         0.346697062
     0.000000000         0.500000000         0.346697062
     0.500000000         0.000000000         0.346697062
     0.500000000         0.500000000         0.346697062
     0.333333343         0.166666672         0.486636281
     0.333333343         0.666666687         0.486636281
     0.833333373         0.166666672         0.486636281
     0.833333373         0.666666687         0.486636281
     0.166666672         0.333333343         0.513363719
     0.166666672         0.833333373         0.513363719
     0.666666687         0.333333343         0.513363719
     0.666666687         0.833333373         0.513363719
     0.000000000         0.000000000         0.653302968
     0.000000000         0.500000000         0.653302968
     0.500000000         0.000000000         0.653302968
     0.500000000         0.500000000         0.653302968
     0.333333343         0.166666672         0.680030406
     0.333333343         0.666666687         0.680030406
     0.833333373         0.166666672         0.680030406
     0.833333373         0.666666687         0.680030406
     0.166666672         0.333333343         0.819969594
     0.166666672         0.833333373         0.819969594
     0.666666687         0.333333343         0.819969594
     0.666666687         0.833333373         0.819969594
     0.000000000         0.000000000         0.846697032
     0.000000000         0.500000000         0.846697032
     0.500000000         0.000000000         0.846697032
     0.500000000         0.500000000         0.846697032
     0.333333343         0.166666672         0.986636281
     0.333333343         0.666666687         0.986636281
     0.833333373         0.166666672         0.986636281
     0.833333373         0.666666687         0.986636281
     0.333333343         0.011483614         0.083333336
     0.333333343         0.511483610         0.083333336
     0.833333373         0.011483614         0.083333336
     0.833333373         0.511483610         0.083333336
     0.178150281         0.166666672         0.083333336
     0.178150281         0.666666687         0.083333336
     0.678150296         0.166666672         0.083333336
     0.678150296         0.666666687         0.083333336
     0.488516390         0.321849734         0.083333336
     0.488516390         0.821849704         0.083333336
     0.988516390         0.321849734         0.083333336
     0.988516390         0.821849704         0.083333336
     0.155183047         0.000000000         0.250000000
     0.155183047         0.500000000         0.250000000
     0.655183077         0.000000000         0.250000000
     0.655183077         0.500000000         0.250000000
     0.000000000         0.155183047         0.250000000
     0.000000000         0.655183077         0.250000000
     0.500000000         0.155183047         0.250000000
     0.500000000         0.655183077         0.250000000
     0.344816953         0.344816953         0.250000000
     0.344816953         0.844816923         0.250000000
     0.844816923         0.344816953         0.250000000
     0.844816923         0.844816923         0.250000000
     0.166666672         0.178150281         0.416666657
     0.166666672         0.678150296         0.416666657
     0.666666687         0.178150281         0.416666657
     0.666666687         0.678150296         0.416666657
     0.011483614         0.333333343         0.416666657
     0.011483614         0.833333373         0.416666657
     0.511483610         0.333333343         0.416666657
     0.511483610         0.833333373         0.416666657
     0.321849734         0.488516390         0.416666657
     0.321849734         0.988516390         0.416666657
     0.821849704         0.488516390         0.416666657
     0.821849704         0.988516390         0.416666657
     0.178150281         0.011483614         0.583333313
     0.178150281         0.511483610         0.583333313
     0.678150296         0.011483614         0.583333313
     0.678150296         0.511483610         0.583333313
     0.488516390         0.166666672         0.583333313
     0.488516390         0.666666687         0.583333313
     0.988516390         0.166666672         0.583333313
     0.988516390         0.666666687         0.583333313
     0.333333343         0.321849734         0.583333313
     0.333333343         0.821849704         0.583333313
     0.833333373         0.321849734         0.583333313
     0.833333373         0.821849704         0.583333313
     0.344816953         0.000000000         0.750000000
     0.344816953         0.500000000         0.750000000
     0.844816923         0.000000000         0.750000000
     0.844816923         0.500000000         0.750000000
     0.155183047         0.155183047         0.750000000
     0.155183047         0.655183077         0.750000000
     0.655183077         0.155183047         0.750000000
     0.655183077         0.655183077         0.750000000
     0.000000000         0.344816953         0.750000000
     0.000000000         0.844816923         0.750000000
     0.500000000         0.344816953         0.750000000
     0.500000000         0.844816923         0.750000000
     0.011483614         0.178150281         0.916666687
     0.011483614         0.678150296         0.916666687
     0.511483610         0.178150281         0.916666687
     0.511483610         0.678150296         0.916666687
     0.321849734         0.333333343         0.916666687
     0.321849734         0.833333373         0.916666687
     0.821849704         0.333333343         0.916666687
     0.821849704         0.833333373         0.916666687
     0.166666672         0.488516390         0.916666687
     0.166666672         0.988516390         0.916666687
     0.666666687         0.488516390         0.916666687
     0.666666687         0.988516390         0.916666687

